%%MatrixMarket matrix coordinate real general
%
1512 1512 10280
1 1 1.730320965120458
1 2 -5.854704041227035E-1
1 3 -2.1216121307596603E-1
1 5 -7.611062624534196E-1
1 12 -1.7158308546836898E-1
2 1 -5.854704041227035E-1
2 2 3.501846553791566
2 3 -6.98276588295808E-1
2 4 -4.6924312582712374E-1
2 5 -4.429177653519369E-1
2 11 -5.926064936519957E-1
2 13 -7.133321765419987E-1
3 1 -2.1216121307596603E-1
3 2 -6.98276588295808E-1
3 3 1.7129145081201917
3 4 -5.394892620539473E-1
3 6 -2.6298744469447033E-1
4 2 -4.6924312582712374E-1
4 3 -5.394892620539473E-1
4 4 3.5314898587622983
4 6 -7.009938927837112E-1
4 7 -5.16412629628416E-1
4 11 -7.751522995368174E-1
4 20 -5.301986489322819E-1
5 1 -7.611062624534196E-1
5 2 -4.429177653519369E-1
5 5 3.5202519878597123
5 12 -6.728048249163142E-1
5 13 -4.8613304281286396E-1
5 21 -4.0444506269988645E-1
5 22 -7.528450296252909E-1
6 3 -2.6298744469447033E-1
6 4 -7.009938927837112E-1
6 6 1.7240929995071341
6 7 -4.133665286561689E-1
6 8 -3.467451333727837E-1
7 4 -5.16412629628416E-1
7 6 -4.133665286561689E-1
7 7 3.429406253822825
7 8 -4.847185156627005E-1
7 9 -5.201167227890254E-1
7 20 -5.56233230566606E-1
7 23 -6.129006002802272E-1
7 29 -3.2565802623968104E-1
8 6 -3.467451333727837E-1
8 7 -4.847185156627005E-1
8 8 1.7990583182420865
8 9 -8.947888678785026E-1
8 10 -7.280580132809955E-2
9 7 -5.201167227890254E-1
9 8 -8.947888678785026E-1
9 9 3.7482708136092273
9 10 -9.362970692698861E-1
9 14 -4.588682657134571E-1
9 23 -9.38199887958356E-1
10 8 -7.280580132809955E-2
10 9 -9.362970692698861E-1
10 10 1.8078619510758067
10 14 -4.6541224227724215E-1
10 15 -3.33346838200579E-1
11 2 -5.926064936519957E-1
11 4 -7.751522995368174E-1
11 11 3.658300374528812
11 13 -7.076990198806703E-1
11 20 -7.787989916295406E-1
11 26 -8.040435698297885E-1
12 1 -1.7158308546836898E-1
12 5 -6.728048249163142E-1
12 12 1.7228728200911148
12 21 -6.65337575923618E-1
12 27 -2.1314733378281359E-1
13 2 -7.133321765419987E-1
13 5 -4.8613304281286396E-1
13 11 -7.076990198806703E-1
13 13 3.560209239670995
13 22 -5.357475305869804E-1
13 26 -3.119340340296323E-1
13 28 -8.053634358188492E-1
14 9 -4.588682657134571E-1
14 10 -4.6541224227724215E-1
14 14 3.422066143337542
14 15 -4.7603098928012155E-1
14 16 -5.963292589598764E-1
14 23 -6.182630079082962E-1
14 30 -4.352463027445629E-1
14 31 -3.719160764539852E-1
15 10 -3.33346838200579E-1
15 14 -4.7603098928012155E-1
15 15 1.7088583540956745
15 16 -6.24020715192454E-1
15 17 -2.7545981142252E-1
16 14 -5.963292589598764E-1
16 15 -6.24020715192454E-1
16 16 3.500605469250753
16 17 -6.471610339947151E-1
16 18 -5.535601724891048E-1
16 31 -7.082671456362308E-1
16 32 -3.71267142978372E-1
17 15 -2.7545981142252E-1
17 16 -6.471610339947151E-1
17 17 1.7059974807142677
17 18 -5.565579995254359E-1
17 19 -2.2681863577159667E-1
18 16 -5.535601724891048E-1
18 17 -5.565579995254359E-1
18 18 3.5010336419012664
18 19 -6.624685343196497E-1
18 24 -5.881918282274432E-1
18 32 -6.528330879841082E-1
18 33 -4.874220193555248E-1
19 17 -2.2681863577159667E-1
19 18 -6.624685343196497E-1
19 19 1.7625099615039383
19 24 -7.755875335445919E-1
19 25 -9.763525786810018E-2
20 4 -5.301986489322819E-1
20 7 -5.56233230566606E-1
20 11 -7.787989916295406E-1
20 20 3.6192260400560565
20 26 -3.0182768187696174E-1
20 29 -5.077683297725809E-1
20 36 -9.44399157278085E-1
21 5 -4.0444506269988645E-1
21 12 -6.65337575923618E-1
21 21 3.56547344670278
21 22 -6.183909865127635E-1
21 27 -7.534830964317482E-1
21 37 -3.2243653227330293E-1
21 38 -8.013801928614612E-1
22 5 -7.528450296252909E-1
22 13 -5.357475305869804E-1
22 21 -6.183909865127635E-1
22 22 3.495094998104713
22 28 -5.298038724330181E-1
22 38 -4.2338459245294036E-1
22 39 -6.349229864937199E-1
23 7 -6.129006002802272E-1
23 9 -9.38199887958356E-1
23 14 -6.182630079082962E-1
23 23 3.704561405913815
23 29 -6.940720807868324E-1
23 30 -8.411258289801026E-1
24 18 -5.881918282274432E-1
24 19 -7.755875335445919E-1
24 24 3.6705982126014467
24 25 -8.61955533011542E-1
24 33 -8.251641954123825E-1
24 34 -6.196991224054869E-1
25 19 -9.763525786810018E-2
25 24 -8.61955533011542E-1
25 25 1.7830134629377392
25 34 -4.73981517642429E-1
25 35 -3.49441154415668E-1
26 11 -8.040435698297885E-1
26 13 -3.119340340296323E-1
26 20 -3.0182768187696174E-1
26 26 3.4545295495431083
26 28 -4.337441611637367E-1
26 36 -5.198624898319903E-1
26 42 -5.681263306446845E-1
26 43 -5.149912821663143E-1
27 12 -2.1314733378281359E-1
27 21 -7.534830964317482E-1
27 27 1.7407385557725115
27 37 -4.0796298961236926E-1
27 44 -3.6614513594558046E-1
28 13 -8.053634358188492E-1
28 22 -5.298038724330181E-1
28 26 -4.337441611637367E-1
28 28 3.5082149529982605
28 39 -4.931472785707659E-1
28 42 -6.367684556319576E-1
28 45 -6.093877493799327E-1
29 7 -3.2565802623968104E-1
29 20 -5.077683297725809E-1
29 23 -6.940720807868324E-1
29 29 3.432740641677936
29 30 -4.0710872572920664E-1
29 36 -5.441178993861794E-1
29 46 -4.3533135085628716E-1
29 47 -5.186842289071685E-1
30 14 -4.352463027445629E-1
30 23 -8.411258289801026E-1
30 29 -4.0710872572920664E-1
30 30 3.54429613094464
30 31 -6.729917073577786E-1
30 47 -6.469813864747529E-1
30 48 -5.40842179658237E-1
31 14 -3.719160764539852E-1
31 16 -7.082671456362308E-1
31 30 -6.729917073577786E-1
31 31 3.504849091883873
31 32 -6.256065760671008E-1
31 48 -6.075715631385978E-1
31 49 -5.184960232301792E-1
32 16 -3.71267142978372E-1
32 18 -6.528330879841082E-1
32 31 -6.256065760671008E-1
32 32 3.501551803308153
32 33 -5.453603409650987E-1
32 49 -6.889992501426643E-1
32 50 -6.174854051708092E-1
33 18 -4.874220193555248E-1
33 24 -8.251641954123825E-1
33 32 -5.453603409650987E-1
33 33 3.532886020560148
33 34 -3.8188139276272903E-1
33 50 -6.177263871180596E-1
33 51 -6.753316849463538E-1
34 24 -6.196991224054869E-1
34 25 -4.73981517642429E-1
34 33 -3.8188139276272903E-1
34 34 3.4026938279328163
34 35 -4.2545051129975264E-1
34 40 -4.996647416049135E-1
34 51 -4.743349199491733E-1
34 52 -5.276816222683316E-1
35 25 -3.49441154415668E-1
35 34 -4.2545051129975264E-1
35 35 1.7182481704295158
35 40 -6.658076578238697E-1
35 41 -2.775488468902256E-1
36 20 -9.44399157278085E-1
36 26 -5.198624898319903E-1
36 29 -5.441178993861794E-1
36 36 3.711608400498643
36 43 -8.33184224105721E-1
36 46 -8.700446298966672E-1
37 21 -3.2243653227330293E-1
37 27 -4.0796298961236926E-1
37 37 3.505596495375401
37 38 -8.210450928583843E-1
37 44 -5.67660539640551E-1
37 55 -6.448310422461152E-1
37 56 -4.8883854827343365E-1
37 65 -2.528217504712446E-1
38 21 -8.013801928614612E-1
38 22 -4.2338459245294036E-1
38 37 -8.210450928583843E-1
38 38 3.7011635542143635
38 39 -7.763126377546498E-1
38 56 -8.790410382869276E-1
39 22 -6.349229864937199E-1
39 28 -4.931472785707659E-1
39 38 -7.763126377546498E-1
39 39 3.5188728375548632
39 45 -6.183136137807315E-1
39 56 -3.80221208534763E-1
39 57 -6.159551124202332E-1
40 34 -4.996647416049135E-1
40 35 -6.658076578238697E-1
40 40 3.5340325830788712
40 41 -5.661713472741214E-1
40 52 -6.140975236119557E-1
40 53 -4.0811392615360986E-1
40 58 -7.801773866104009E-1
41 35 -2.775488468902256E-1
41 40 -5.661713472741214E-1
41 41 1.701118145151658
41 53 -6.091253226517579E-1
41 54 -2.4827262833555291E-1
42 26 -5.681263306446845E-1
42 28 -6.367684556319576E-1
42 42 3.4685563003832125
42 43 -5.585433397274391E-1
42 45 -5.515078809818403E-1
42 61 -5.859357069110844E-1
42 62 -5.676745864862062E-1
43 26 -5.149912821663143E-1
43 36 -8.33184224105721E-1
43 42 -5.585433397274391E-1
43 43 3.52402031539784
43 46 -3.921165759561837E-1
43 62 -6.26548270444371E-1
43 63 -5.986366229978106E-1
44 27 -3.6614513594558046E-1
44 37 -5.67660539640551E-1
44 44 1.7094931153815585
44 55 -5.012522559882102E-1
44 64 -2.7443518380721676E-1
45 28 -6.093877493799327E-1
45 39 -6.183136137807315E-1
45 42 -5.515078809818403E-1
45 45 3.46691704569241
45 57 -5.389559254369832E-1
45 61 -5.74318858973639E-1
45 66 -5.744330171392826E-1
46 29 -4.3533135085628716E-1
46 36 -8.700446298966672E-1
46 43 -3.921165759561837E-1
46 46 3.5457064332191135
46 47 -6.154107496038844E-1
46 63 -6.296991342957743E-1
46 67 -6.031039926103163E-1
47 29 -5.186842289071685E-1
47 30 -6.469813864747529E-1
47 46 -6.154107496038844E-1
47 47 3.4716060836202987
47 48 -5.704946130072803E-1
47 67 -5.695854205831088E-1
47 68 -5.504496850441039E-1
48 30 -5.40842179658237E-1
48 31 -6.075715631385978E-1
48 47 -5.704946130072803E-1
48 48 3.4657396400676013
48 49 -5.771397608972042E-1
48 68 -5.987120006906537E-1
48 69 -5.709795226756285E-1
49 31 -5.184960232301792E-1
49 32 -6.889992501426643E-1
49 48 -5.771397608972042E-1
49 49 3.475483425736199
49 50 -4.997790263986352E-1
49 69 -6.011640465693544E-1
49 70 -5.899053184981619E-1
50 32 -6.174854051708092E-1
50 33 -6.177263871180596E-1
50 49 -4.997790263986352E-1
50 50 3.4701897582210295
50 51 -5.375072697115063E-1
50 70 -6.046236269208419E-1
50 71 -5.930680429011781E-1
51 33 -6.753316849463538E-1
51 34 -4.743349199491733E-1
51 50 -5.375072697115063E-1
51 51 3.487631298999245
51 52 -6.95243088700491E-1
51 71 -5.939695876626562E-1
51 72 -5.112447480290645E-1
52 34 -5.276816222683316E-1
52 40 -6.140975236119557E-1
52 51 -6.95243088700491E-1
52 52 3.5107919045244707
52 58 -6.179450077005656E-1
52 72 -6.48489330776552E-1
52 73 -4.073353314665749E-1
53 40 -4.0811392615360986E-1
53 41 -6.091253226517579E-1
53 53 3.539825268163801
53 54 -6.092830151274138E-1
53 58 -8.704279707465099E-1
53 59 -6.049720599555926E-1
53 74 -4.3790297352891683E-1
54 41 -2.4827262833555291E-1
54 53 -6.092830151274138E-1
54 54 1.7029920858082122
54 59 -6.009531386743603E-1
54 60 -2.4448330367088517E-1
55 37 -6.448310422461152E-1
55 44 -5.012522559882102E-1
55 55 3.5969111820407957
55 64 -6.497721998887318E-1
55 65 -8.734513180950421E-1
55 77 -7.17775543150363E-1
55 78 -2.0982882267233344E-1
56 37 -4.8883854827343365E-1
56 38 -8.790410382869276E-1
56 39 -3.80221208534763E-1
56 56 3.5760753383913046
56 57 -5.679853827062784E-1
56 65 -6.924464227940494E-1
56 79 -5.675427377958528E-1
57 39 -6.159551124202332E-1
57 45 -5.389559254369832E-1
57 56 -5.679853827062784E-1
57 57 3.466130743212574
57 66 -5.86614677701908E-1
57 79 -5.720619695675311E-1
57 80 -5.8455767537964E-1
58 40 -7.801773866104009E-1
58 52 -6.179450077005656E-1
58 53 -8.704279707465099E-1
58 58 3.6829368537614586
58 73 -8.788872202251544E-1
58 74 -5.354992684788276E-1
59 53 -6.049720599555926E-1
59 54 -6.009531386743603E-1
59 59 3.5166620443337715
59 60 -6.100174247261343E-1
59 74 -4.6019698261699243E-1
59 75 -4.31981117670071E-1
59 81 -8.085413206906209E-1
60 54 -2.4448330367088517E-1
60 59 -6.100174247261343E-1
60 60 1.7028047994075848
60 75 -5.985760496437011E-1
60 76 -2.4972802136686406E-1
61 42 -5.859357069110844E-1
61 45 -5.74318858973639E-1
61 61 3.464170079861895
61 62 -5.718647064082899E-1
61 66 -5.77350269189628E-1
61 84 -5.773502691896263E-1
61 85 -5.773502691896275E-1
62 42 -5.676745864862062E-1
62 43 -6.26548270444371E-1
62 61 -5.718647064082899E-1
62 62 3.4663832672204355
62 63 -5.450403435499667E-1
62 85 -5.773502691896311E-1
62 86 -5.779050911419699E-1
63 43 -5.986366229978106E-1
63 46 -6.296991342957743E-1
63 62 -5.450403435499667E-1
63 63 3.467610152925098
63 67 -5.456792064177125E-1
63 86 -5.743666110785999E-1
63 87 -5.741882345852336E-1
64 44 -2.7443518380721676E-1
64 55 -6.497721998887318E-1
64 64 1.741410464613071
64 77 -7.03129971216469E-1
64 88 -1.1407310970065343E-1
65 37 -2.528217504712446E-1
65 55 -8.734513180950421E-1
65 56 -6.924464227940494E-1
65 65 3.5555123177585104
65 78 -5.959306030463788E-1
65 79 -5.863473487301668E-1
65 89 -5.545148746216284E-1
66 45 -5.744330171392826E-1
66 57 -5.86614677701908E-1
66 61 -5.77350269189628E-1
66 66 3.4641848239400512
66 80 -5.710863215299731E-1
66 84 -5.773502691896337E-1
66 90 -5.773502691896262E-1
67 46 -6.031039926103163E-1
67 47 -5.695854205831088E-1
67 63 -5.456792064177125E-1
67 67 3.4659021881493253
67 68 -5.946083861552052E-1
67 87 -5.785799670989835E-1
67 91 -5.743452152839992E-1
68 47 -5.504496850441039E-1
68 48 -5.987120006906537E-1
68 67 -5.946083861552052E-1
68 68 3.4649676311752224
68 69 -5.726283755671064E-1
68 91 -5.770671992903125E-1
68 92 -5.715019844278411E-1
69 48 -5.709795226756285E-1
69 49 -6.011640465693544E-1
69 68 -5.726283755671064E-1
69 69 3.4646605810545035
69 70 -5.616527029332655E-1
69 92 -5.808861580956464E-1
69 93 -5.773497752135026E-1
70 49 -5.899053184981619E-1
70 50 -6.046236269208419E-1
70 69 -5.616527029332655E-1
70 70 3.465175735453448
70 71 -5.542935487219274E-1
70 93 -5.773502691896246E-1
70 94 -5.773502691896268E-1
71 50 -5.930680429011781E-1
71 51 -5.939695876626562E-1
71 70 -5.542935487219274E-1
71 71 3.465121988905901
71 72 -5.876883525925898E-1
71 94 -5.757363029984022E-1
71 95 -5.603661540291476E-1
72 51 -5.112447480290645E-1
72 52 -6.48489330776552E-1
72 71 -5.876883525925898E-1
72 72 3.470477427999316
72 73 -5.961142580672791E-1
72 95 -5.926795189489242E-1
72 96 -5.342612195849059E-1
73 52 -4.073353314665749E-1
73 58 -8.788872202251544E-1
73 72 -5.961142580672791E-1
73 73 3.537211519016463
73 74 -4.418491038672712E-1
73 96 -6.393639701445082E-1
73 97 -5.736616352456747E-1
74 53 -4.3790297352891683E-1
74 58 -5.354992684788276E-1
74 59 -4.6019698261699243E-1
74 73 -4.418491038672712E-1
74 74 3.4180811441813903
74 81 -6.526832077167889E-1
74 97 -5.666507087228035E-1
74 98 -3.2329889924978966E-1
75 59 -4.31981117670071E-1
75 60 -5.985760496437011E-1
75 75 3.5106447624319372
75 76 -5.905856143258033E-1
75 81 -8.063528251073089E-1
75 82 -5.824150153042416E-1
75 99 -5.007341403808109E-1
76 60 -2.4972802136686406E-1
76 75 -5.905856143258033E-1
76 76 1.7048210287162848
76 82 -6.341652236523311E-1
76 83 -2.303421693712865E-1
77 55 -7.17775543150363E-1
77 64 -7.03129971216469E-1
77 77 3.668582409097726
77 78 -7.878473097110104E-1
77 88 -8.126455989719037E-1
77 101 -6.471839860479801E-1
78 55 -2.0982882267233344E-1
78 65 -5.959306030463788E-1
78 77 -7.878473097110104E-1
78 78 3.4625132115198944
78 89 -6.194167260850681E-1
78 101 -3.7566940097978696E-1
78 102 -4.317400139234628E-1
78 113 -4.4208033510185407E-1
79 56 -5.675427377958528E-1
79 57 -5.720619695675311E-1
79 65 -5.863473487301668E-1
79 79 3.464351932416783
79 80 -5.788776192264988E-1
79 89 -5.80039186371035E-1
79 103 -5.794830707256984E-1
80 57 -5.8455767537964E-1
80 66 -5.710863215299731E-1
80 79 -5.788776192264988E-1
80 80 3.464168875579449
80 90 -5.773502691896191E-1
80 103 -5.749467210640996E-1
80 104 -5.773502691896182E-1
81 59 -8.085413206906209E-1
81 74 -6.526832077167889E-1
81 75 -8.063528251073089E-1
81 81 3.694308542738808
81 98 -9.327255124627095E-1
81 99 -4.940056767613801E-1
82 75 -5.824150153042416E-1
82 76 -6.341652236523311E-1
82 82 3.5522224872961554
82 83 -6.169721752142237E-1
82 99 -4.392468760837176E-1
82 100 -3.761088666267794E-1
82 105 -9.033143304148625E-1
83 76 -2.303421693712865E-1
83 82 -6.169721752142237E-1
83 83 1.7072487134742214
83 100 -6.319619011809074E-1
83 106 -2.2797246770780355E-1
84 61 -5.773502691896263E-1
84 66 -5.773502691896337E-1
84 84 3.464101615145311
84 85 -5.773485957751585E-1
84 90 -5.773502691896221E-1
84 107 -5.77349019189664E-1
84 108 -5.773531926116062E-1
85 61 -5.773502691896275E-1
85 62 -5.773502691896311E-1
85 84 -5.773485957751585E-1
85 85 3.4641016153858555
85 86 -5.77340228675356E-1
85 108 -5.773448660475892E-1
85 109 -5.773673865084933E-1
86 62 -5.779050911419699E-1
86 63 -5.743666110785999E-1
86 85 -5.77340228675356E-1
86 86 3.464110315807572
86 87 -5.796359550879051E-1
86 109 -5.773178515156369E-1
86 110 -5.775445783081042E-1
87 63 -5.741882345852336E-1
87 67 -5.785799670989835E-1
87 86 -5.796359550879051E-1
87 87 3.464111188090786
87 91 -5.779599948382683E-1
87 110 -5.769204282436262E-1
87 111 -5.768266082367692E-1
88 64 -1.1407310970065343E-1
88 77 -8.126455989719037E-1
88 88 1.7621899873411355
88 101 -6.138297281413614E-1
88 112 -2.21641550527217E-1
89 65 -5.545148746216284E-1
89 78 -6.194167260850681E-1
89 79 -5.80039186371035E-1
89 89 3.46609869296617
89 102 -5.753276601028308E-1
89 103 -5.777713336252475E-1
89 114 -5.5902891216036E-1
90 66 -5.773502691896262E-1
90 80 -5.773502691896191E-1
90 84 -5.773502691896221E-1
90 90 3.4641016151377544
90 104 -5.773502691896379E-1
90 107 -5.773502691896163E-1
90 115 -5.773502691896328E-1
91 67 -5.743452152839992E-1
91 68 -5.770671992903125E-1
91 87 -5.779599948382683E-1
91 91 3.464114289467603
91 92 -5.796887943783732E-1
91 111 -5.776996362645681E-1
91 116 -5.77353449412082E-1
92 68 -5.715019844278411E-1
92 69 -5.808861580956464E-1
92 91 -5.796887943783732E-1
92 92 3.464132637323362
92 93 -5.773493048334819E-1
92 116 -5.773625007775016E-1
92 117 -5.773438948105176E-1
93 69 -5.773497752135026E-1
93 70 -5.773502691896246E-1
93 92 -5.773493048334819E-1
93 93 3.4641016151418613
93 94 -5.773502691896255E-1
93 117 -5.773517275259924E-1
93 118 -5.773502691896344E-1
94 70 -5.773502691896268E-1
94 71 -5.757363029984022E-1
94 93 -5.773502691896255E-1
94 94 3.4641252768803747
94 95 -5.823060679073144E-1
94 118 -5.773502691896282E-1
94 119 -5.740320984057776E-1
95 71 -5.603661540291476E-1
95 72 -5.926795189489242E-1
95 94 -5.823060679073144E-1
95 95 3.464521647461769
95 96 -5.80454645415404E-1
95 119 -5.8237283998442E-1
95 120 -5.663424211765591E-1
96 72 -5.342612195849059E-1
96 73 -6.393639701445082E-1
96 95 -5.80454645415404E-1
96 96 3.4679987723652794
96 97 -5.432992836671253E-1
96 120 -5.949059213537204E-1
96 121 -5.757137321996153E-1
97 73 -5.736616352456747E-1
97 74 -5.666507087228035E-1
97 96 -5.432992836671253E-1
97 97 3.470554904324447
97 98 -6.553075424855748E-1
97 121 -5.837193596882928E-1
97 122 -5.479163745149751E-1
98 74 -3.2329889924978966E-1
98 81 -9.327255124627095E-1
98 97 -6.553075424855748E-1
98 98 3.5686744784714426
98 99 -4.27389145861658E-1
98 122 -6.339438224672307E-1
98 123 -5.9600955594448E-1
99 75 -5.007341403808109E-1
99 81 -4.940056767613801E-1
99 82 -4.392468760837176E-1
99 98 -4.27389145861658E-1
99 99 3.402002269714978
99 105 -5.786496881031806E-1
99 123 -5.946289253070569E-1
99 124 -3.673478172171738E-1
100 82 -3.761088666267794E-1
100 83 -6.319619011809074E-1
100 100 3.5112873343184843
100 105 -7.246462500975779E-1
100 106 -6.27073252470066E-1
100 125 -5.526737771975956E-1
100 126 -5.988232867455577E-1
101 77 -6.471839860479801E-1
101 78 -3.7566940097978696E-1
101 88 -6.138297281413614E-1
101 101 3.5475644272348394
101 112 -5.367195158606926E-1
101 113 -8.706467288970907E-1
101 128 -5.035150673079277E-1
102 78 -4.317400139234628E-1
102 89 -5.753276601028308E-1
102 102 3.6023681314085723
102 113 -9.929716087900075E-1
102 114 -6.417670428822959E-1
102 129 -6.809670643466164E-1
102 130 -2.7959474136335827E-1
103 79 -5.794830707256984E-1
103 80 -5.749467210640996E-1
103 89 -5.777713336252475E-1
103 103 3.4641106163526865
103 104 -5.773502691896213E-1
103 114 -5.77208952558387E-1
103 131 -5.773502691896328E-1
104 80 -5.773502691896182E-1
104 90 -5.773502691896379E-1
104 103 -5.773502691896213E-1
104 104 3.4641016151377544
104 115 -5.773502691896168E-1
104 131 -5.773502691896321E-1
104 132 -5.773502691896284E-1
105 82 -9.033143304148625E-1
105 99 -5.786496881031806E-1
105 100 -7.246462500975779E-1
105 105 3.6792295388215415
105 124 -8.45417041350796E-1
105 126 -6.272022288551244E-1
106 83 -2.2797246770780355E-1
106 100 -6.27073252470066E-1
106 106 1.7043103534156283
106 125 -5.805461750273536E-1
106 127 -2.6871845821040513E-1
107 84 -5.77349019189664E-1
107 90 -5.773502691896163E-1
107 107 3.4641016151407715
107 108 -5.773510957766431E-1
107 115 -5.773502691896213E-1
107 137 -5.773502691896335E-1
107 138 -5.773506926055929E-1
108 84 -5.773531926116062E-1
108 85 -5.773448660475892E-1
108 107 -5.773510957766431E-1
108 108 3.4641016152439947
108 109 -5.773544020770691E-1
108 138 -5.773481723662084E-1
108 139 -5.773498863648778E-1
109 85 -5.773673865084933E-1
109 86 -5.773178515156369E-1
109 108 -5.773544020770691E-1
109 109 3.4641016183181925
109 110 -5.773633511389263E-1
109 139 -5.7733018831792E-1
109 140 -5.773684387601471E-1
110 86 -5.775445783081042E-1
110 87 -5.769204282436262E-1
110 109 -5.773633511389263E-1
110 110 3.4641018280767457
110 111 -5.776929500364709E-1
110 140 -5.77279254804664E-1
110 141 -5.773012655449535E-1
111 87 -5.768266082367692E-1
111 91 -5.776996362645681E-1
111 110 -5.776929500364709E-1
111 111 3.464101898688626
111 116 -5.773033934589675E-1
111 141 -5.773235066610919E-1
111 142 -5.772558040307579E-1
112 88 -2.21641550527217E-1
112 101 -5.367195158606926E-1
112 112 1.7092034732541066
112 128 -6.720093580633387E-1
112 143 -2.7883304880285814E-1
113 78 -4.4208033510185407E-1
113 101 -8.706467288970907E-1
113 102 -9.929716087900075E-1
113 113 3.7254234161929487
113 128 -6.499067246928389E-1
113 130 -7.69818018711157E-1
114 89 -5.5902891216036E-1
114 102 -6.417670428822959E-1
114 103 -5.77208952558387E-1
114 114 3.467442890320598
114 129 -5.390607910629404E-1
114 131 -5.778838017118775E-1
114 144 -5.724933899447371E-1
115 90 -5.773502691896328E-1
115 104 -5.773502691896168E-1
115 107 -5.773502691896213E-1
115 115 3.4641016151377544
115 132 -5.773502691896277E-1
115 137 -5.773502691896271E-1
115 145 -5.773502691896286E-1
116 91 -5.77353449412082E-1
116 92 -5.773625007775016E-1
116 111 -5.773033934589675E-1
116 116 3.4641016202625847
116 117 -5.773444829902482E-1
116 142 -5.774091172030309E-1
116 146 -5.773286764207546E-1
117 92 -5.773438948105176E-1
117 93 -5.773517275259924E-1
117 116 -5.773444829902482E-1
117 117 3.4641016152782527
117 118 -5.773502691896296E-1
117 146 -5.773614655483452E-1
117 147 -5.773497752135196E-1
118 93 -5.773502691896344E-1
118 94 -5.773502691896282E-1
118 117 -5.773502691896296E-1
118 118 3.4641016151377544
118 119 -5.773502691896265E-1
118 147 -5.773502691896071E-1
118 148 -5.773502691896286E-1
119 94 -5.740320984057776E-1
119 95 -5.8237283998442E-1
119 118 -5.773502691896265E-1
119 119 3.4641256600828028
119 120 -5.756699141237239E-1
119 148 -5.773502691896308E-1
119 149 -5.773502691896236E-1
120 95 -5.663424211765591E-1
120 96 -5.949059213537204E-1
120 119 -5.756699141237239E-1
120 120 3.464343967719804
120 121 -5.727251726865359E-1
120 149 -5.773502691896366E-1
120 150 -5.773502691896283E-1
121 96 -5.757137321996153E-1
121 97 -5.837193596882928E-1
121 120 -5.727251726865359E-1
121 121 3.4642090721433325
121 122 -5.773502691896247E-1
121 150 -5.773502691896302E-1
121 151 -5.773502691896333E-1
122 97 -5.479163745149751E-1
122 98 -6.339438224672307E-1
122 121 -5.773502691896247E-1
122 122 3.466638328399762
122 123 -5.547315947436269E-1
122 151 -5.773502691896315E-1
122 152 -5.753459982946731E-1
123 98 -5.9600955594448E-1
123 99 -5.946289253070569E-1
123 122 -5.547315947436269E-1
123 123 3.468026232451211
123 124 -5.966513596448642E-1
123 152 -5.853153467624406E-1
123 153 -5.406894500487422E-1
124 99 -3.673478172171738E-1
124 105 -8.45417041350796E-1
124 123 -5.966513596448642E-1
124 124 3.5407236752967117
124 126 -5.022214426855816E-1
124 153 -6.822956835680323E-1
124 154 -5.46790330830264E-1
125 100 -5.526737771975956E-1
125 106 -5.805461750273536E-1
125 125 3.471205197198601
125 126 -5.533858007991167E-1
125 127 -5.803376413449672E-1
125 133 -6.548806933861218E-1
125 155 -5.493811094434458E-1
126 100 -5.988232867455577E-1
126 105 -6.272022288551244E-1
126 124 -5.022214426855816E-1
126 125 -5.533858007991167E-1
126 126 3.487831378997574
126 154 -6.335198050567177E-1
126 155 -5.726788148554762E-1
127 106 -2.6871845821040513E-1
127 125 -5.803376413449672E-1
127 127 1.700903918549391
127 133 -5.388509045405308E-1
127 134 -3.129969144534879E-1
128 101 -5.035150673079277E-1
128 112 -6.720093580633387E-1
128 113 -6.499067246928389E-1
128 128 3.508014384471317
128 130 -5.156134889593946E-1
128 143 -4.571609026961301E-1
128 157 -7.098088427516878E-1
129 102 -6.809670643466164E-1
129 114 -5.390607910629404E-1
129 129 3.4744025112728987
129 130 -5.283482442167918E-1
129 144 -5.855391505837492E-1
129 158 -5.811909627736993E-1
129 159 -5.592962982891017E-1
130 102 -2.7959474136335827E-1
130 113 -7.69818018711157E-1
130 128 -5.156134889593946E-1
130 129 -5.283482442167918E-1
130 130 3.4661073716771447
130 157 -2.784534450411577E-1
130 159 -5.242041853908129E-1
130 173 -5.700752479944724E-1
131 103 -5.773502691896328E-1
131 104 -5.773502691896321E-1
131 114 -5.778838017118775E-1
131 131 3.464102623125415
131 132 -5.773502691896082E-1
131 144 -5.773630073562013E-1
131 160 -5.768050064884632E-1
132 104 -5.773502691896284E-1
132 115 -5.773502691896277E-1
132 131 -5.773502691896082E-1
132 132 3.4641016151377544
132 145 -5.773502691896191E-1
132 160 -5.773502691896354E-1
132 161 -5.773502691896357E-1
133 125 -6.548806933861218E-1
133 127 -5.388509045405308E-1
133 133 3.487762432643475
133 134 -5.090449556912111E-1
133 135 -7.226452550603095E-1
133 155 -5.784799901634425E-1
133 162 -4.8386063380185906E-1
134 127 -3.129969144534879E-1
134 133 -5.090449556912111E-1
134 134 1.7016743053514756
134 135 -5.914094571920285E-1
134 136 -2.8822297801474805E-1
135 133 -7.226452550603095E-1
135 134 -5.914094571920285E-1
135 135 3.569603368331572
135 136 -5.075175124944729E-1
135 156 -5.267469445637057E-1
135 162 -3.2776630345834745E-1
135 164 -8.935178955627081E-1
136 134 -2.8822297801474805E-1
136 135 -5.075175124944729E-1
136 136 1.7070042617308911
136 156 -6.621991858200987E-1
136 163 -2.4906458540157173E-1
137 107 -5.773502691896335E-1
137 115 -5.773502691896271E-1
137 137 3.464101615137755
137 138 -5.773502691896126E-1
137 145 -5.773502691896093E-1
137 165 -5.773502691896343E-1
137 166 -5.773502691896382E-1
138 107 -5.773506926055929E-1
138 108 -5.773481723662084E-1
138 137 -5.773502691896126E-1
138 138 3.464101615142915
138 139 -5.773519426022484E-1
138 165 -5.773502691896311E-1
138 167 -5.773502691896221E-1
139 108 -5.773498863648778E-1
139 109 -5.7733018831792E-1
139 138 -5.773519426022484E-1
139 139 3.4641016154367796
139 140 -5.773660957085518E-1
139 167 -5.773502691896382E-1
139 168 -5.773532332535439E-1
140 109 -5.773684387601471E-1
140 110 -5.77279254804664E-1
140 139 -5.773660957085518E-1
140 140 3.46410162035143
140 141 -5.774164351985553E-1
140 168 -5.773355915286903E-1
140 169 -5.773358043508212E-1
141 110 -5.773012655449535E-1
141 111 -5.773235066610919E-1
141 140 -5.774164351985553E-1
141 141 3.464101621849369
141 142 -5.774177044600686E-1
141 169 -5.773293145956475E-1
141 170 -5.773133953890522E-1
142 111 -5.772558040307579E-1
142 116 -5.774091172030309E-1
142 141 -5.774177044600686E-1
142 142 3.464101623813277
142 146 -5.773540844097058E-1
142 170 -5.773454952489064E-1
142 171 -5.773194184608075E-1
143 112 -2.7883304880285814E-1
143 128 -4.571609026961301E-1
143 143 1.7090358264904433
143 157 -6.543141535480274E-1
143 172 -3.1872772144342765E-1
144 114 -5.724933899447371E-1
144 129 -5.855391505837492E-1
144 131 -5.773630073562013E-1
144 144 3.4641840471381125
144 158 -5.708476096081317E-1
144 160 -5.78977343480126E-1
144 174 -5.789635461651669E-1
145 115 -5.773502691896286E-1
145 132 -5.773502691896191E-1
145 137 -5.773502691896093E-1
145 145 3.4641016151377553
145 161 -5.773502691896369E-1
145 166 -5.773502691896266E-1
145 175 -5.773502691896345E-1
146 116 -5.773286764207546E-1
146 117 -5.773614655483452E-1
146 142 -5.773540844097058E-1
146 146 3.464101615573699
146 147 -5.77349304833438E-1
146 171 -5.773612258124953E-1
146 176 -5.773468585489603E-1
147 117 -5.773497752135196E-1
147 118 -5.773502691896071E-1
147 146 -5.77349304833438E-1
147 147 3.464101615141861
147 148 -5.773502691896228E-1
147 176 -5.773517275260329E-1
147 177 -5.773502691896404E-1
148 118 -5.773502691896286E-1
148 119 -5.773502691896308E-1
148 147 -5.773502691896228E-1
148 148 3.4641016151377544
148 149 -5.773502691896282E-1
148 177 -5.773502691896248E-1
148 178 -5.773502691896191E-1
149 119 -5.773502691896236E-1
149 120 -5.773502691896366E-1
149 148 -5.773502691896282E-1
149 149 3.464101615137755
149 150 -5.773502691896184E-1
149 178 -5.773502691896153E-1
149 179 -5.773502691896325E-1
150 120 -5.773502691896283E-1
150 121 -5.773502691896302E-1
150 149 -5.773502691896184E-1
150 150 3.464101615137755
150 151 -5.7735026918961E-1
150 179 -5.773502691896176E-1
150 180 -5.773502691896504E-1
151 121 -5.773502691896333E-1
151 122 -5.773502691896315E-1
151 150 -5.7735026918961E-1
151 151 3.464101638811907
151 152 -5.774548388823777E-1
151 180 -5.774025658731192E-1
151 181 -5.77193426487535E-1
152 122 -5.753459982946731E-1
152 123 -5.853153467624406E-1
152 151 -5.774548388823777E-1
152 152 3.464142465437816
152 153 -5.739289152085171E-1
152 181 -5.775074337049901E-1
152 182 -5.745899325848176E-1
153 123 -5.406894500487422E-1
153 124 -6.822956835680323E-1
153 152 -5.739289152085171E-1
153 153 3.47203896579619
153 154 -5.187467785847052E-1
153 182 -5.820773435754303E-1
153 183 -5.743007948107628E-1
154 124 -5.46790330830264E-1
154 126 -6.335198050567177E-1
154 153 -5.187467785847052E-1
154 154 3.471217724837542
154 155 -5.543105557297054E-1
154 183 -6.038574336768828E-1
154 184 -6.139928209592664E-1
155 125 -5.493811094434458E-1
155 126 -5.726788148554762E-1
155 133 -5.784799901634425E-1
155 154 -5.543105557297054E-1
155 155 3.475253330798934
155 162 -6.052616934812407E-1
155 184 -6.151411671256235E-1
156 135 -5.267469445637057E-1
156 136 -6.621991858200987E-1
156 156 3.487974942752756
156 163 -5.488842525971757E-1
156 164 -5.397384710736346E-1
156 185 -5.320063954914052E-1
156 186 -6.783996932067362E-1
157 128 -7.098088427516878E-1
157 130 -2.784534450411577E-1
157 143 -6.543141535480274E-1
157 157 3.604730459945598
157 172 -4.96874949619474E-1
157 173 -9.952211773304952E-1
157 187 -4.700578916547564E-1
158 129 -5.811909627736993E-1
158 144 -5.708476096081317E-1
158 158 3.4660608830047925
158 159 -6.20567893735654E-1
158 174 -5.768187780233172E-1
158 188 -5.41642279803434E-1
158 189 -5.749933590605562E-1
159 129 -5.592962982891017E-1
159 130 -5.242041853908129E-1
159 158 -6.20567893735654E-1
159 159 3.505308691057456
159 173 -7.66307438090136E-1
159 188 -6.178540347320779E-1
159 190 -4.1707884081967356E-1
160 131 -5.768050064884632E-1
160 132 -5.773502691896354E-1
160 144 -5.78977343480126E-1
160 160 3.464104150525846
160 161 -5.773502691896135E-1
160 174 -5.762709929883811E-1
160 191 -5.773502691896268E-1
161 132 -5.773502691896357E-1
161 145 -5.773502691896369E-1
161 160 -5.773502691896135E-1
161 161 3.464101615137755
161 175 -5.77350269189616E-1
161 191 -5.773502691896286E-1
161 192 -5.77350269189624E-1
162 133 -4.8386063380185906E-1
162 135 -3.2776630345834745E-1
162 155 -6.052616934812407E-1
162 162 3.43163790953437
162 164 -6.744628487754256E-1
162 184 -4.159671212769898E-1
162 193 -4.415246583058546E-1
162 194 -4.827946504346524E-1
163 136 -2.4906458540157173E-1
163 156 -5.488842525971757E-1
163 163 1.7041783996141233
163 185 -6.522608805503305E-1
163 195 -2.5396868106504566E-1
164 135 -8.935178955627081E-1
164 156 -5.397384710736346E-1
164 162 -6.744628487754256E-1
164 164 3.68127993596774
164 186 -7.129952472417493E-1
164 194 -8.605654733142222E-1
165 137 -5.773502691896343E-1
165 138 -5.773502691896311E-1
165 165 3.4641016151377553
165 166 -5.773502691896217E-1
165 167 -5.773502691896214E-1
165 196 -5.773502691896206E-1
165 197 -5.773502691896257E-1
166 137 -5.773502691896382E-1
166 145 -5.773502691896266E-1
166 165 -5.773502691896217E-1
166 166 3.464101615137755
166 175 -5.773502691896193E-1
166 197 -5.773502691896251E-1
166 198 -5.773502691896241E-1
167 138 -5.773502691896221E-1
167 139 -5.773502691896382E-1
167 165 -5.773502691896214E-1
167 167 3.4641016151377553
167 168 -5.77350269189627E-1
167 196 -5.773502691896248E-1
167 199 -5.773502691896214E-1
168 139 -5.773532332535439E-1
168 140 -5.773355915286903E-1
168 167 -5.77350269189627E-1
168 168 3.4641016153906325
168 169 -5.773619830395202E-1
168 199 -5.773502691896356E-1
168 200 -5.773502691896153E-1
169 140 -5.773358043508212E-1
169 141 -5.773293145956475E-1
169 168 -5.773619830395202E-1
169 169 3.4641016160627625
169 170 -5.773739756975154E-1
169 200 -5.77350269189647E-1
169 201 -5.773502691896113E-1
170 141 -5.773133953890522E-1
170 142 -5.773454952489064E-1
170 169 -5.773739756975154E-1
170 170 3.4641016165108405
170 171 -5.773682117961006E-1
170 201 -5.77350269189647E-1
170 202 -5.773502691896183E-1
171 142 -5.773194184608075E-1
171 146 -5.773612258124953E-1
171 170 -5.773682117961006E-1
171 171 3.464101615952839
171 176 -5.7735222150415E-1
171 202 -5.773502691896533E-1
171 203 -5.77350269189632E-1
172 143 -3.1872772144342765E-1
172 157 -4.96874949619474E-1
172 172 1.711235885409006
172 187 -5.289132971791717E-1
172 204 -3.667199171669327E-1
173 130 -5.700752479944724E-1
173 157 -9.952211773304952E-1
173 159 -7.66307438090136E-1
173 173 3.7158338323186215
173 187 -5.147038561459388E-1
173 190 -8.695261127575786E-1
174 144 -5.789635461651669E-1
174 158 -5.768187780233172E-1
174 160 -5.762709929883811E-1
174 174 3.4641041247457434
174 189 -5.773502691896317E-1
174 191 -5.773502691896195E-1
174 205 -5.773502691896273E-1
175 145 -5.773502691896345E-1
175 161 -5.77350269189616E-1
175 166 -5.773502691896193E-1
175 175 3.464101615137755
175 192 -5.773502691896302E-1
175 198 -5.773502691896278E-1
175 206 -5.77350269189627E-1
176 146 -5.773468585489603E-1
176 147 -5.773517275260329E-1
176 171 -5.7735222150415E-1
176 176 3.46410161514804
176 177 -5.773502691896196E-1
176 203 -5.773502691896395E-1
176 207 -5.773502691896376E-1
177 147 -5.773502691896404E-1
177 148 -5.773502691896248E-1
177 176 -5.773502691896196E-1
177 177 3.4641016151377544
177 178 -5.773502691896296E-1
177 207 -5.773502691896203E-1
177 208 -5.773502691896196E-1
178 148 -5.773502691896191E-1
178 149 -5.773502691896153E-1
178 177 -5.773502691896296E-1
178 178 3.464101615137754
178 179 -5.773502691896415E-1
178 208 -5.773502691896257E-1
178 209 -5.773502691896231E-1
179 149 -5.773502691896325E-1
179 150 -5.773502691896176E-1
179 178 -5.773502691896415E-1
179 179 3.4641016151560233
179 180 -5.773531740311539E-1
179 209 -5.773517216195246E-1
179 210 -5.77345911936453E-1
180 150 -5.773502691896504E-1
180 151 -5.774025658731192E-1
180 179 -5.773531740311539E-1
180 180 3.4641016244072937
180 181 -5.773676894479214E-1
180 210 -5.773546266912855E-1
180 211 -5.772732991741636E-1
181 151 -5.77193426487535E-1
181 152 -5.775074337049901E-1
181 180 -5.773676894479214E-1
181 181 3.4641019527933743
181 182 -5.773499755979836E-1
181 211 -5.774810035362673E-1
181 212 -5.772024240186766E-1
182 152 -5.745899325848176E-1
182 153 -5.820773435754303E-1
182 181 -5.773499755979836E-1
182 182 3.464129262974099
182 183 -5.735801028196015E-1
182 212 -5.782397869150854E-1
182 213 -5.782921214811811E-1
183 153 -5.743007948107628E-1
183 154 -6.038574336768828E-1
183 182 -5.735801028196015E-1
183 183 3.4647705798457054
183 184 -5.586450923108363E-1
183 213 -5.770368870379939E-1
183 214 -5.773502691896282E-1
184 154 -6.139928209592664E-1
184 155 -6.151411671256235E-1
184 162 -4.159671212769898E-1
184 183 -5.586450923108363E-1
184 184 3.4931441625012103
184 193 -6.99222760955098E-1
184 214 -5.901751998733963E-1
185 156 -5.320063954914052E-1
185 163 -6.522608805503305E-1
185 185 3.4714561137357514
185 186 -5.204375889272662E-1
185 195 -5.752777777647002E-1
185 215 -5.755695196379481E-1
185 216 -6.159039513641009E-1
186 156 -6.783996932067362E-1
186 164 -7.129952472417493E-1
186 185 -5.204375889272662E-1
186 186 3.5095267057274433
186 194 -4.245856746817286E-1
186 216 -5.548595819327882E-1
186 217 -6.182489197371744E-1
187 157 -4.700578916547564E-1
187 172 -5.289132971791717E-1
187 173 -5.147038561459388E-1
187 187 3.3972374345466805
187 190 -4.5530055765892646E-1
187 204 -3.992525162854731E-1
187 218 -5.649813274767528E-1
187 219 -4.640279881456612E-1
188 158 -5.41642279803434E-1
188 159 -6.178540347320779E-1
188 188 3.466723262643253
188 189 -5.853408644700808E-1
188 190 -5.913995058435161E-1
188 220 -5.861377572907787E-1
188 221 -5.443488205033652E-1
189 158 -5.749933590605562E-1
189 174 -5.773502691896317E-1
189 188 -5.853408644700808E-1
189 189 3.4641652883592227
189 205 -5.773502691896182E-1
189 220 -5.717802572597139E-1
189 222 -5.773502691896218E-1
190 159 -4.1707884081967356E-1
190 173 -8.695261127575786E-1
190 187 -4.5530055765892646E-1
190 188 -5.913995058435161E-1
190 190 3.533074738918308
190 219 -5.62166310088979E-1
190 221 -6.376034117496346E-1
191 160 -5.773502691896268E-1
191 161 -5.773502691896286E-1
191 174 -5.773502691896195E-1
191 191 3.4641016151377553
191 192 -5.773502691896284E-1
191 205 -5.773502691896253E-1
191 223 -5.773502691896266E-1
192 161 -5.77350269189624E-1
192 175 -5.773502691896302E-1
192 191 -5.773502691896284E-1
192 192 3.4641016151377544
192 206 -5.773502691896213E-1
192 223 -5.773502691896216E-1
192 224 -5.773502691896295E-1
193 162 -4.415246583058546E-1
193 184 -6.99222760955098E-1
193 193 3.4933454814235274
193 194 -6.813394275283919E-1
193 214 -5.440418568202614E-1
193 225 -5.470377174722194E-1
193 226 -5.801790603417015E-1
194 162 -4.827946504346524E-1
194 164 -8.605654733142222E-1
194 186 -4.245856746817286E-1
194 193 -6.813394275283919E-1
194 194 3.5478518524978373
194 217 -5.302258466752428E-1
194 226 -5.683407798635998E-1
195 163 -2.5396868106504566E-1
195 185 -5.752777777647002E-1
195 195 1.7001062115284036
195 215 -5.823232751691073E-1
195 227 -2.885364775295503E-1
196 165 -5.773502691896206E-1
196 167 -5.773502691896248E-1
196 196 3.4641016151377553
196 197 -5.773502691896306E-1
196 199 -5.773502691896288E-1
196 228 -5.773502691896237E-1
196 229 -5.773502691896263E-1
197 165 -5.773502691896257E-1
197 166 -5.773502691896251E-1
197 196 -5.773502691896306E-1
197 197 3.464101615137755
197 198 -5.773502691896294E-1
197 229 -5.773502691896218E-1
197 230 -5.77350269189622E-1
198 166 -5.773502691896241E-1
198 175 -5.773502691896278E-1
198 197 -5.773502691896294E-1
198 198 3.4641016151377544
198 206 -5.77350269189626E-1
198 230 -5.773502691896262E-1
198 231 -5.773502691896212E-1
199 167 -5.773502691896214E-1
199 168 -5.773502691896356E-1
199 196 -5.773502691896288E-1
199 199 3.4641016151377544
199 200 -5.773502691896213E-1
199 228 -5.773502691896222E-1
199 232 -5.773502691896255E-1
200 168 -5.773502691896153E-1
200 169 -5.77350269189647E-1
200 199 -5.773502691896213E-1
200 200 3.4641016151377544
200 201 -5.773502691896184E-1
200 232 -5.773502691896268E-1
200 233 -5.773502691896256E-1
201 169 -5.773502691896113E-1
201 170 -5.77350269189647E-1
201 200 -5.773502691896184E-1
201 201 3.4641016151377544
201 202 -5.773502691896175E-1
201 233 -5.773502691896292E-1
201 234 -5.773502691896312E-1
202 170 -5.773502691896183E-1
202 171 -5.773502691896533E-1
202 201 -5.773502691896175E-1
202 202 3.4641016151377544
202 203 -5.773502691896154E-1
202 234 -5.773502691896238E-1
202 235 -5.773502691896262E-1
203 171 -5.77350269189632E-1
203 176 -5.773502691896395E-1
203 202 -5.773502691896154E-1
203 203 3.464101615137755
203 207 -5.773502691896188E-1
203 235 -5.773502691896256E-1
203 236 -5.773502691896232E-1
204 172 -3.667199171669327E-1
204 187 -3.992525162854731E-1
204 204 1.7657883024962702
204 218 -8.337369967991807E-1
204 237 -1.6607887224468376E-1
205 174 -5.773502691896273E-1
205 189 -5.773502691896182E-1
205 191 -5.773502691896253E-1
205 205 3.4641016151377544
205 222 -5.773502691896311E-1
205 223 -5.773502691896235E-1
205 238 -5.773502691896295E-1
206 175 -5.77350269189627E-1
206 192 -5.773502691896213E-1
206 198 -5.77350269189626E-1
206 206 3.464101615137755
206 224 -5.773502691896295E-1
206 231 -5.773502691896234E-1
206 239 -5.773502691896277E-1
207 176 -5.773502691896376E-1
207 177 -5.773502691896203E-1
207 203 -5.773502691896188E-1
207 207 3.464101615137755
207 208 -5.773502691896272E-1
207 236 -5.773502691896262E-1
207 240 -5.773502691896247E-1
208 177 -5.773502691896196E-1
208 178 -5.773502691896257E-1
208 207 -5.773502691896272E-1
208 208 3.4641016151377544
208 209 -5.773502691896282E-1
208 240 -5.773502691896188E-1
208 241 -5.773502691896351E-1
209 178 -5.773502691896231E-1
209 179 -5.773517216195246E-1
209 208 -5.773502691896282E-1
209 209 3.464101615145062
209 210 -5.773502691823076E-1
209 241 -5.773502691895944E-1
209 242 -5.773488167743843E-1
210 179 -5.77345911936453E-1
210 180 -5.773546266912855E-1
210 209 -5.773502691823076E-1
210 210 3.4641016154008293
210 211 -5.773502689630233E-1
210 242 -5.773546264720134E-1
210 243 -5.773459121557467E-1
211 180 -5.772732991741636E-1
211 181 -5.774810035362673E-1
211 210 -5.773502689630233E-1
211 211 3.464101636411949
211 212 -5.772456905523029E-1
211 243 -5.773749608634564E-1
211 244 -5.773764133227351E-1
212 181 -5.772024240186766E-1
212 182 -5.782397869150854E-1
212 211 -5.772456905523029E-1
212 212 3.464102377560775
212 213 -5.767226519679882E-1
212 244 -5.773415549170786E-1
212 245 -5.773502691896435E-1
213 182 -5.782921214811811E-1
213 183 -5.770368870379939E-1
213 212 -5.767226519679882E-1
213 213 3.4641024680560504
213 214 -5.773502691896288E-1
213 245 -5.773502691896324E-1
213 246 -5.773502691896258E-1
214 183 -5.773502691896282E-1
214 184 -5.901751998733963E-1
214 193 -5.440418568202614E-1
214 213 -5.773502691896288E-1
214 214 3.4651628661033387
214 225 -5.988950018407964E-1
214 246 -5.77350269189628E-1
215 185 -5.755695196379481E-1
215 195 -5.823232751691073E-1
215 215 3.465318483316848
215 216 -5.564100046914885E-1
215 227 -5.558356949208993E-1
215 247 -6.040409901228033E-1
215 248 -5.911389987746016E-1
216 185 -6.159039513641009E-1
216 186 -5.548595819327882E-1
216 215 -5.564100046914885E-1
216 216 3.465774755221725
216 217 -5.687523662747003E-1
216 248 -5.677673664729933E-1
216 249 -6.020814844856537E-1
217 186 -6.182489197371744E-1
217 194 -5.302258466752428E-1
217 216 -5.687523662747003E-1
217 217 3.466607141345314
217 226 -5.83661821328568E-1
217 249 -5.620805488259635E-1
217 250 -6.036376385036644E-1
218 187 -5.649813274767528E-1
218 204 -8.337369967991807E-1
218 218 3.6752387920778835
218 219 -8.982477060053078E-1
218 237 -7.4646201340407E-1
218 251 -6.318107483925717E-1
219 187 -4.640279881456612E-1
219 190 -5.62166310088979E-1
219 218 -8.982477060053078E-1
219 219 3.55288475024076
219 221 -5.929166032402802E-1
219 251 -3.451893828975229E-1
219 252 -6.903367598630088E-1
220 188 -5.861377572907787E-1
220 189 -5.717802572597139E-1
220 220 3.464172958152199
220 221 -5.742041360328161E-1
220 222 -5.773502691896235E-1
220 253 -5.773502691896233E-1
220 254 -5.773502691896435E-1
221 188 -5.443488205033652E-1
221 190 -6.376034117496346E-1
221 219 -5.929166032402802E-1
221 220 -5.742041360328161E-1
221 221 3.4679765427112152
221 252 -5.298862677589129E-1
221 254 -5.890173034262063E-1
222 189 -5.773502691896218E-1
222 205 -5.773502691896311E-1
222 220 -5.773502691896235E-1
222 222 3.4641016151377544
222 238 -5.773502691896177E-1
222 253 -5.77350269189631E-1
222 255 -5.773502691896293E-1
223 191 -5.773502691896266E-1
223 192 -5.773502691896216E-1
223 205 -5.773502691896235E-1
223 223 3.464101615137755
223 224 -5.773502691896177E-1
223 238 -5.77350269189632E-1
223 256 -5.773502691896333E-1
224 192 -5.773502691896295E-1
224 206 -5.773502691896295E-1
224 223 -5.773502691896177E-1
224 224 3.464101615137755
224 239 -5.77350269189621E-1
224 256 -5.773502691896291E-1
224 257 -5.773502691896274E-1
225 193 -5.470377174722194E-1
225 214 -5.988950018407964E-1
225 225 3.465050070265983
225 226 -5.870665433840883E-1
225 246 -5.773502691896306E-1
225 258 -5.773502691896273E-1
225 259 -5.77350269189621E-1
226 193 -5.801790603417015E-1
226 194 -5.683407798635998E-1
226 217 -5.83661821328568E-1
226 225 -5.870665433840883E-1
226 226 3.464683858034379
226 250 -5.680853839267886E-1
226 259 -5.773502691896331E-1
227 195 -2.885364775295503E-1
227 215 -5.558356949208993E-1
227 227 1.6991799454718257
227 247 -5.600207649889499E-1
227 260 -2.94787008032426E-1
228 196 -5.773502691896237E-1
228 199 -5.773502691896222E-1
228 228 3.464101615137755
228 229 -5.773502691896265E-1
228 232 -5.773502691896304E-1
228 261 -5.773502691896282E-1
228 262 -5.773502691896237E-1
229 196 -5.773502691896263E-1
229 197 -5.773502691896218E-1
229 228 -5.773502691896265E-1
229 229 3.4641016151377584
229 230 -5.773502427637511E-1
229 261 -5.773503047625512E-1
229 263 -5.773502600425815E-1
230 197 -5.77350269189622E-1
230 198 -5.773502691896262E-1
230 229 -5.773502427637511E-1
230 230 3.4641016151377864
230 231 -5.773501962937755E-1
230 263 -5.77350455742357E-1
230 264 -5.773501819586541E-1
231 198 -5.773502691896212E-1
231 206 -5.773502691896234E-1
231 230 -5.773501962937755E-1
231 231 3.4641016151378143
231 239 -5.773502691896266E-1
231 264 -5.773505131094623E-1
231 265 -5.773500981657053E-1
232 199 -5.773502691896255E-1
232 200 -5.773502691896268E-1
232 228 -5.773502691896304E-1
232 232 3.464101615137755
232 233 -5.773502691896274E-1
232 262 -5.773502691896235E-1
232 266 -5.773502691896213E-1
233 200 -5.773502691896256E-1
233 201 -5.773502691896292E-1
233 232 -5.773502691896274E-1
233 233 3.4641016151377553
233 234 -5.77350269189623E-1
233 266 -5.773502691896264E-1
233 267 -5.773502691896233E-1
234 201 -5.773502691896312E-1
234 202 -5.773502691896238E-1
234 233 -5.77350269189623E-1
234 234 3.4641016151377553
234 235 -5.773502691896266E-1
234 267 -5.773502691896254E-1
234 268 -5.773502691896251E-1
235 202 -5.773502691896262E-1
235 203 -5.773502691896256E-1
235 234 -5.773502691896266E-1
235 235 3.464101615165351
235 236 -5.773466990293021E-1
235 268 -5.773484841232621E-1
235 269 -5.773556244439082E-1
236 203 -5.773502691896232E-1
236 207 -5.773502691896262E-1
236 235 -5.773466990293021E-1
236 236 3.4641016151653505
236 240 -5.773502691896284E-1
236 269 -5.773556244439115E-1
236 270 -5.773484841232592E-1
237 204 -1.6607887224468376E-1
237 218 -7.4646201340407E-1
237 237 1.7330407245140858
237 251 -4.9596346678675135E-1
237 271 -3.2453637207858066E-1
238 205 -5.773502691896295E-1
238 222 -5.773502691896177E-1
238 223 -5.77350269189632E-1
238 238 3.464101615137755
238 255 -5.773502691896282E-1
238 256 -5.773502691896162E-1
238 272 -5.773502691896311E-1
239 206 -5.773502691896277E-1
239 224 -5.77350269189621E-1
239 231 -5.773502691896266E-1
239 239 3.4641016151377544
239 257 -5.773502691896275E-1
239 265 -5.773502691896244E-1
239 273 -5.773502691896273E-1
240 207 -5.773502691896247E-1
240 208 -5.773502691896188E-1
240 236 -5.773502691896284E-1
240 240 3.464101615137755
240 241 -5.773502691896328E-1
240 270 -5.773502691896253E-1
240 274 -5.773502691896245E-1
241 208 -5.773502691896351E-1
241 209 -5.773502691895944E-1
241 240 -5.773502691896328E-1
241 241 3.464101615137755
241 242 -5.773502691896557E-1
241 274 -5.773502691896231E-1
241 275 -5.773502691896135E-1
242 209 -5.773488167743843E-1
242 210 -5.773546264720134E-1
242 241 -5.773502691896557E-1
242 242 3.4641016151560238
242 243 -5.773473643407164E-1
242 275 -5.773502691896089E-1
242 276 -5.773502691896446E-1
243 210 -5.773459121557467E-1
243 211 -5.773749608634564E-1
243 242 -5.773473643407164E-1
243 243 3.464101615726031
243 244 -5.773328399867846E-1
243 276 -5.773502691896251E-1
243 277 -5.773502691897017E-1
244 211 -5.773764133227351E-1
244 212 -5.773415549170786E-1
244 243 -5.773328399867846E-1
244 244 3.464101615795453
244 245 -5.77350269189609E-1
244 277 -5.77350269189576E-1
244 278 -5.773502691896697E-1
245 212 -5.773502691896435E-1
245 213 -5.773502691896324E-1
245 244 -5.77350269189609E-1
245 245 3.4641016151377544
245 246 -5.773502691896315E-1
245 278 -5.773502691896095E-1
245 279 -5.773502691896286E-1
246 213 -5.773502691896258E-1
246 214 -5.77350269189628E-1
246 225 -5.773502691896306E-1
246 245 -5.773502691896315E-1
246 246 3.4641016151377544
246 258 -5.773502691896237E-1
246 279 -5.773502691896149E-1
247 215 -6.040409901228033E-1
247 227 -5.600207649889499E-1
247 247 3.469511757650613
247 248 -5.820515638411119E-1
247 260 -5.626097094724101E-1
247 280 -6.517900732482368E-1
247 281 -5.089986559771007E-1
248 215 -5.911389987746016E-1
248 216 -5.677673664729933E-1
248 247 -5.820515638411119E-1
248 248 3.4653056412352
248 249 -5.521624072015529E-1
248 281 -6.08734021341331E-1
248 282 -5.634512836036097E-1
249 216 -6.020814844856537E-1
249 217 -5.620805488259635E-1
249 248 -5.521624072015529E-1
249 249 3.465113315767392
249 250 -5.650576852207416E-1
249 282 -5.931807948763106E-1
249 283 -5.9055039515717E-1
250 217 -6.036376385036644E-1
250 226 -5.680853839267886E-1
250 249 -5.650576852207416E-1
250 250 3.4645626106950242
250 259 -5.773502691896257E-1
250 283 -5.730813646645776E-1
250 284 -5.773502691896262E-1
251 218 -6.318107483925717E-1
251 219 -3.451893828975229E-1
251 237 -4.9596346678675135E-1
251 251 3.4030571267218788
251 252 -5.171218219124273E-1
251 271 -4.3982284117962794E-1
251 285 -4.3661015602090913E-1
251 286 -5.365387095320684E-1
252 219 -6.903367598630088E-1
252 221 -5.298862677589129E-1
252 251 -5.171218219124273E-1
252 252 3.4758639756431733
252 254 -5.701384597673256E-1
252 286 -5.788568550164004E-1
252 287 -5.895238113250982E-1
253 220 -5.773502691896233E-1
253 222 -5.77350269189631E-1
253 253 3.4641016151377544
253 254 -5.77350269189633E-1
253 255 -5.773502691896202E-1
253 288 -5.773502691896184E-1
253 289 -5.773502691896291E-1
254 220 -5.773502691896435E-1
254 221 -5.890173034262063E-1
254 252 -5.701384597673256E-1
254 253 -5.77350269189633E-1
254 254 3.4643217464596403
254 287 -5.754193731810274E-1
254 289 -5.750460717058046E-1
255 222 -5.773502691896293E-1
255 238 -5.773502691896282E-1
255 253 -5.773502691896202E-1
255 255 3.4641016151377544
255 272 -5.773502691896225E-1
255 288 -5.77350269189629E-1
255 290 -5.773502691896255E-1
256 223 -5.773502691896333E-1
256 224 -5.773502691896291E-1
256 238 -5.773502691896162E-1
256 256 3.464101615137755
256 257 -5.773502691896255E-1
256 272 -5.773502691896176E-1
256 291 -5.773502691896334E-1
257 224 -5.773502691896274E-1
257 239 -5.773502691896275E-1
257 256 -5.773502691896255E-1
257 257 3.464101615137755
257 273 -5.773502691896188E-1
257 291 -5.773502691896242E-1
257 292 -5.773502691896313E-1
258 225 -5.773502691896273E-1
258 246 -5.773502691896237E-1
258 258 3.464101615137754
258 259 -5.773502691896233E-1
258 279 -5.773502691896331E-1
258 293 -5.773502691896313E-1
258 294 -5.773502691896157E-1
259 225 -5.77350269189621E-1
259 226 -5.773502691896331E-1
259 250 -5.773502691896257E-1
259 258 -5.773502691896233E-1
259 259 3.4641016151377544
259 284 -5.773502691896226E-1
259 293 -5.773502691896288E-1
260 227 -2.94787008032426E-1
260 247 -5.626097094724101E-1
260 260 1.6993445261373519
260 280 -5.525157724029418E-1
260 295 -2.894320362295737E-1
261 228 -5.773502691896282E-1
261 229 -5.773503047625512E-1
261 261 3.4641016257284862
261 262 -5.773004884136888E-1
261 263 -5.773360303320408E-1
261 296 -5.772917580605683E-1
261 297 -5.774727749700088E-1
262 228 -5.773502691896237E-1
262 232 -5.773502691896235E-1
262 261 -5.773004884136888E-1
262 262 3.464101675530988
262 266 -5.771986862974401E-1
262 297 -5.772741056250805E-1
262 298 -5.776278568155313E-1
263 229 -5.773502600425815E-1
263 230 -5.77350455742357E-1
263 261 -5.773360303320408E-1
263 263 3.46410161731136
263 264 -5.77349939054224E-1
263 296 -5.77397085744951E-1
263 299 -5.773178463952058E-1
264 230 -5.773501819586541E-1
264 231 -5.773505131094623E-1
264 263 -5.77349939054224E-1
264 264 3.4641016151381567
264 265 -5.773502859477389E-1
264 299 -5.773508600028805E-1
264 300 -5.773498350651967E-1
265 231 -5.773500981657053E-1
265 239 -5.773502691896244E-1
265 264 -5.773502859477389E-1
265 265 3.464101615138441
265 273 -5.773500912195831E-1
265 300 -5.773512551807154E-1
265 301 -5.773496154350737E-1
266 232 -5.773502691896213E-1
266 233 -5.773502691896264E-1
266 262 -5.771986862974401E-1
266 266 3.4641017014492173
266 267 -5.771606391564121E-1
266 298 -5.774183033520317E-1
266 302 -5.776235342640859E-1
267 233 -5.773502691896233E-1
267 234 -5.773502691896254E-1
267 266 -5.771606391564121E-1
267 267 3.464101677308946
267 268 -5.772810610376773E-1
267 302 -5.775812152898485E-1
267 303 -5.773782234457596E-1
268 234 -5.773502691896251E-1
268 235 -5.773484841232621E-1
268 267 -5.772810610376773E-1
268 268 3.464101623911735
268 269 -5.773288480841685E-1
268 303 -5.774433752518068E-1
268 304 -5.77349586225195E-1
269 235 -5.773556244439082E-1
269 236 -5.773556244439115E-1
269 268 -5.773288480841685E-1
269 269 3.464101616031876
269 270 -5.773502691785899E-1
269 304 -5.773770460350724E-1
269 305 -5.773342038462259E-1
270 236 -5.773484841232592E-1
270 240 -5.773502691896253E-1
270 269 -5.773502691785899E-1
270 270 3.464101615148793
270 274 -5.773502691896225E-1
270 305 -5.773520542780748E-1
270 306 -5.773502691896213E-1
271 237 -3.2453637207858066E-1
271 251 -4.3982284117962794E-1
271 271 1.7643770975614212
271 285 -8.583538565207924E-1
271 307 -1.416640277824202E-1
272 238 -5.773502691896311E-1
272 255 -5.773502691896225E-1
272 256 -5.773502691896176E-1
272 272 3.4641016151377544
272 290 -5.773502691896306E-1
272 291 -5.773502691896238E-1
272 308 -5.773502691896293E-1
273 239 -5.773502691896273E-1
273 257 -5.773502691896188E-1
273 265 -5.773500912195831E-1
273 273 3.4641016151381114
273 292 -5.773502691896278E-1
273 301 -5.773508647030676E-1
273 309 -5.773498516465865E-1
274 240 -5.773502691896245E-1
274 241 -5.773502691896231E-1
274 270 -5.773502691896225E-1
274 274 3.4641016151377544
274 275 -5.773502691896366E-1
274 306 -5.773502691896278E-1
274 310 -5.773502691896195E-1
275 241 -5.773502691896135E-1
275 242 -5.773502691896089E-1
275 274 -5.773502691896366E-1
275 275 3.4641016151377544
275 276 -5.773502691896433E-1
275 310 -5.773502691896248E-1
275 311 -5.773502691896273E-1
276 242 -5.773502691896446E-1
276 243 -5.773502691896251E-1
276 275 -5.773502691896433E-1
276 276 3.4641016151377544
276 277 -5.773502691896077E-1
276 311 -5.77350269189592E-1
276 312 -5.773502691896419E-1
277 243 -5.773502691897017E-1
277 244 -5.77350269189576E-1
277 276 -5.773502691896077E-1
277 277 3.4641016151377544
277 278 -5.773502691895982E-1
277 312 -5.773502691896092E-1
277 313 -5.773502691896615E-1
278 244 -5.773502691896697E-1
278 245 -5.773502691896095E-1
278 277 -5.773502691895982E-1
278 278 3.464101615137754
278 279 -5.773502691896355E-1
278 313 -5.773502691896104E-1
278 314 -5.773502691896311E-1
279 245 -5.773502691896286E-1
279 246 -5.773502691896149E-1
279 258 -5.773502691896331E-1
279 278 -5.773502691896355E-1
279 279 3.4641016151377544
279 294 -5.773502691896337E-1
279 314 -5.773502691896089E-1
280 247 -6.517900732482368E-1
280 260 -5.525157724029418E-1
280 280 3.4716374316367213
280 281 -5.925821547337795E-1
280 295 -6.148350270544767E-1
280 315 -5.753825642970124E-1
280 316 -4.845318399002745E-1
281 247 -5.089986559771007E-1
281 248 -6.08734021341331E-1
281 280 -5.925821547337795E-1
281 281 3.4688258589515826
281 282 -5.783483544832952E-1
281 316 -6.31360473205709E-1
281 317 -5.488021992103667E-1
282 248 -5.634512836036097E-1
282 249 -5.931807948763106E-1
282 281 -5.783483544832952E-1
282 282 3.464427756386895
282 283 -5.707689356975896E-1
282 317 -5.792165811362329E-1
282 318 -5.794618065898576E-1
283 249 -5.9055039515717E-1
283 250 -5.730813646645776E-1
283 282 -5.707689356975896E-1
283 283 3.4642425434638353
283 284 -5.77350269189627E-1
283 318 -5.753596048663135E-1
283 319 -5.77131973888557E-1
284 250 -5.773502691896262E-1
284 259 -5.773502691896226E-1
284 283 -5.77350269189627E-1
284 284 3.4641016151377544
284 293 -5.773502691896253E-1
284 319 -5.773502691896275E-1
284 320 -5.77350269189626E-1
285 251 -4.3661015602090913E-1
285 271 -8.583538565207924E-1
285 285 3.7091079230942756
285 286 -9.297032654411543E-1
285 307 -7.630240397898549E-1
285 321 -7.214166053215649E-1
286 251 -5.365387095320684E-1
286 252 -5.788568550164004E-1
286 285 -9.297032654411543E-1
286 286 3.573822593783677
286 287 -6.030105803103163E-1
286 321 -2.488938247020896E-1
286 322 -6.768193587816481E-1
287 252 -5.895238113250982E-1
287 254 -5.754193731810274E-1
287 286 -6.030105803103163E-1
287 287 3.4653354971951265
287 289 -5.814074126235644E-1
287 322 -5.529664799678475E-1
287 323 -5.630078397872724E-1
288 253 -5.773502691896184E-1
288 255 -5.77350269189629E-1
288 288 3.464101615137755
288 289 -5.773502691896257E-1
288 290 -5.773502691896248E-1
288 324 -5.773502691896282E-1
288 325 -5.773502691896283E-1
289 253 -5.773502691896291E-1
289 254 -5.750460717058046E-1
289 287 -5.814074126235644E-1
289 288 -5.773502691896257E-1
289 289 3.4641479481363233
289 323 -5.808118020726866E-1
289 324 -5.721821233550132E-1
290 255 -5.773502691896255E-1
290 272 -5.773502691896306E-1
290 288 -5.773502691896248E-1
290 290 3.464101615137754
290 308 -5.773502691896204E-1
290 325 -5.773502691896277E-1
290 326 -5.773502691896254E-1
291 256 -5.773502691896334E-1
291 257 -5.773502691896242E-1
291 272 -5.773502691896238E-1
291 291 3.464101615137755
291 292 -5.773502691896184E-1
291 308 -5.773502691896295E-1
291 327 -5.773502691896255E-1
292 257 -5.773502691896313E-1
292 273 -5.773502691896278E-1
292 291 -5.773502691896184E-1
292 292 3.4641016151377544
292 309 -5.773502691896244E-1
292 327 -5.773502691896288E-1
292 328 -5.77350269189624E-1
293 258 -5.773502691896313E-1
293 259 -5.773502691896288E-1
293 284 -5.773502691896253E-1
293 293 3.4641016151377544
293 294 -5.773502691896302E-1
293 320 -5.773502691896318E-1
293 329 -5.773502691896071E-1
294 258 -5.773502691896157E-1
294 279 -5.773502691896337E-1
294 293 -5.773502691896302E-1
294 294 3.4641016151377553
294 314 -5.773502691896375E-1
294 329 -5.773502691896515E-1
294 330 -5.773502691895864E-1
295 260 -2.894320362295737E-1
295 280 -6.148350270544767E-1
295 295 1.7024525349569966
295 315 -4.999678436629573E-1
295 331 -2.982176280099888E-1
296 261 -5.772917580605683E-1
296 263 -5.77397085744951E-1
296 296 3.4641016324203413
296 297 -5.773335534640254E-1
296 299 -5.773903904076618E-1
296 336 -5.774539327476811E-1
296 337 -5.772349119954536E-1
297 261 -5.774727749700088E-1
297 262 -5.772741056250805E-1
297 296 -5.773335534640254E-1
297 297 3.464101918642946
297 298 -5.770840333606059E-1
297 336 -5.769563519865573E-1
297 338 -5.779810992366683E-1
298 262 -5.776278568155313E-1
298 266 -5.774183033520317E-1
298 297 -5.770840333606059E-1
298 298 3.464102142446184
298 302 -5.767357853904265E-1
298 338 -5.771461478550781E-1
298 339 -5.780900156725108E-1
299 263 -5.773178463952058E-1
299 264 -5.773508600028805E-1
299 296 -5.773903904076618E-1
299 299 3.4641016181747064
299 300 -5.773492966702265E-1
299 337 -5.773784873032672E-1
299 340 -5.773147373954648E-1
300 264 -5.773498350651967E-1
300 265 -5.773512551807154E-1
300 299 -5.773492966702265E-1
300 300 3.4641016151423862
300 301 -5.7734972855854E-1
300 340 -5.773526476296595E-1
300 341 -5.773488520380485E-1
301 265 -5.773496154350737E-1
301 273 -5.773508647030676E-1
301 300 -5.7734972855854E-1
301 301 3.4641016151436346
301 309 -5.7735004917371E-1
301 341 -5.773530512837081E-1
301 342 -5.773483059895351E-1
302 266 -5.776235342640859E-1
302 267 -5.775812152898485E-1
302 298 -5.767357853904265E-1
302 302 3.464102030900515
302 303 -5.769564836071426E-1
302 339 -5.778020403771069E-1
302 343 -5.774029719719047E-1
303 267 -5.773782234457596E-1
303 268 -5.774433752518068E-1
303 302 -5.769564836071426E-1
303 303 3.4641018310204865
303 304 -5.772909472370462E-1
303 343 -5.778645347840432E-1
303 344 -5.771682666946881E-1
304 268 -5.77349586225195E-1
304 269 -5.773770460350724E-1
304 303 -5.772909472370462E-1
304 304 3.4641016217233416
304 305 -5.773403822837051E-1
304 344 -5.774349949227577E-1
304 345 -5.773086650195649E-1
305 269 -5.773342038462259E-1
305 270 -5.773520542780748E-1
305 304 -5.773403822837051E-1
305 305 3.4641016157968623
305 306 -5.773502691896206E-1
305 345 -5.773811652214654E-1
305 346 -5.773435409777705E-1
306 270 -5.773502691896213E-1
306 274 -5.773502691896278E-1
306 305 -5.773502691896206E-1
306 306 3.4641016151377544
306 310 -5.773502691896257E-1
306 346 -5.773502691896315E-1
306 347 -5.773502691896277E-1
307 271 -1.416640277824202E-1
307 285 -7.630240397898549E-1
307 307 1.745011215085487
307 321 -5.175330783255497E-1
307 348 -3.2279006918766207E-1
308 272 -5.773502691896293E-1
308 290 -5.773502691896204E-1
308 291 -5.773502691896295E-1
308 308 3.464101615137755
308 326 -5.77350269189632E-1
308 327 -5.773502691896197E-1
308 349 -5.773502691896238E-1
309 273 -5.773498516465865E-1
309 292 -5.773502691896244E-1
309 301 -5.7735004917371E-1
309 309 3.4641016151517317
309 328 -5.773486115710758E-1
309 342 -5.773545563190787E-1
309 350 -5.773482772516564E-1
310 274 -5.773502691896195E-1
310 275 -5.773502691896248E-1
310 306 -5.773502691896257E-1
310 310 3.4641016151377553
310 311 -5.773502691896337E-1
310 347 -5.773502691896251E-1
310 351 -5.77350269189626E-1
311 275 -5.773502691896273E-1
311 276 -5.77350269189592E-1
311 310 -5.773502691896337E-1
311 311 3.4641016151377544
311 312 -5.773502691896352E-1
311 351 -5.773502691896231E-1
311 352 -5.773502691896433E-1
312 276 -5.773502691896419E-1
312 277 -5.773502691896092E-1
312 311 -5.773502691896352E-1
312 312 3.464101615137755
312 313 -5.773502691896222E-1
312 352 -5.773502691895945E-1
312 353 -5.773502691896515E-1
313 277 -5.773502691896615E-1
313 278 -5.773502691896104E-1
313 312 -5.773502691896222E-1
313 313 3.4641016151377544
313 314 -5.773502691896453E-1
313 353 -5.773502691895591E-1
313 354 -5.773502691896558E-1
314 278 -5.773502691896311E-1
314 279 -5.773502691896089E-1
314 294 -5.773502691896375E-1
314 313 -5.773502691896453E-1
314 314 3.4641016151377544
314 330 -5.773502691896604E-1
314 354 -5.773502691895719E-1
315 280 -5.753825642970124E-1
315 295 -4.999678436629573E-1
315 315 3.4779640375692975
315 316 -6.769299376120452E-1
315 331 -6.31940652473132E-1
315 332 -6.148125997569422E-1
315 355 -4.789304397672078E-1
316 280 -4.845318399002745E-1
316 281 -6.31360473205709E-1
316 315 -6.769299376120452E-1
316 316 3.4760003721378654
316 317 -6.125892878810265E-1
316 355 -5.36917723947247E-1
316 356 -5.336711095915632E-1
317 281 -5.488021992103667E-1
317 282 -5.792165811362329E-1
317 316 -6.125892878810265E-1
317 317 3.4652966876980593
317 318 -5.785536804159164E-1
317 356 -5.701276152009452E-1
317 357 -5.760073238535718E-1
318 282 -5.794618065898576E-1
318 283 -5.753596048663135E-1
318 317 -5.785536804159164E-1
318 318 3.4641131410519423
318 319 -5.780059820908607E-1
318 357 -5.747260849981384E-1
318 358 -5.780059820908556E-1
319 283 -5.77131973888557E-1
319 284 -5.773502691896275E-1
319 318 -5.780059820908607E-1
319 319 3.464102028636768
319 320 -5.773502691896253E-1
319 358 -5.769132650884723E-1
319 359 -5.773502691896257E-1
320 284 -5.77350269189626E-1
320 293 -5.773502691896318E-1
320 319 -5.773502691896253E-1
320 320 3.464101615137755
320 329 -5.77350269189618E-1
320 359 -5.773502691896305E-1
320 360 -5.773502691896234E-1
321 285 -7.214166053215649E-1
321 286 -2.488938247020896E-1
321 307 -5.175330783255497E-1
321 321 3.50711356395052
321 322 -4.875570252908274E-1
321 348 -4.554083942739747E-1
321 363 -3.007631265131333E-1
321 364 -7.755415095233807E-1
322 286 -6.768193587816481E-1
322 287 -5.529664799678475E-1
322 321 -4.875570252908274E-1
322 322 3.5358034333260946
322 323 -5.963646427795771E-1
322 364 -8.117495471855483E-1
322 365 -4.10346379320646E-1
323 287 -5.630078397872724E-1
323 289 -5.808118020726866E-1
323 322 -5.963646427795771E-1
323 323 3.4650287018572543
323 324 -5.855694546213216E-1
323 365 -5.869631662225483E-1
323 366 -5.523117963738482E-1
324 288 -5.773502691896282E-1
324 289 -5.721821233550132E-1
324 323 -5.855694546213216E-1
324 324 3.464163732188966
324 325 -5.773502691896357E-1
324 366 -5.743613466437589E-1
324 367 -5.773502691896082E-1
325 288 -5.773502691896283E-1
325 290 -5.773502691896277E-1
325 324 -5.773502691896357E-1
325 325 3.4641016151377544
325 326 -5.773502691896342E-1
325 367 -5.773502691896087E-1
325 368 -5.773502691896197E-1
326 290 -5.773502691896254E-1
326 308 -5.77350269189632E-1
326 325 -5.773502691896342E-1
326 326 3.4641016151377544
326 349 -5.773502691896268E-1
326 368 -5.773502691895974E-1
326 369 -5.773502691896386E-1
327 291 -5.773502691896255E-1
327 292 -5.773502691896288E-1
327 308 -5.773502691896197E-1
327 327 3.464101615137755
327 328 -5.773502691896214E-1
327 349 -5.773502691896363E-1
327 370 -5.773502691896228E-1
328 292 -5.77350269189624E-1
328 309 -5.773486115710758E-1
328 327 -5.773502691896214E-1
328 328 3.464101615163025
328 350 -5.773553680627121E-1
328 370 -5.773502691896332E-1
328 371 -5.773468279603586E-1
329 293 -5.773502691896071E-1
329 294 -5.773502691896515E-1
329 320 -5.77350269189618E-1
329 329 3.4641016151377544
329 330 -5.773502691896352E-1
329 360 -5.773502691896526E-1
329 372 -5.773502691895904E-1
330 294 -5.773502691895864E-1
330 314 -5.773502691896604E-1
330 329 -5.773502691896352E-1
330 330 3.4641016151377544
330 354 -5.77350269189646E-1
330 372 -5.77350269189657E-1
330 373 -5.773502691895696E-1
331 295 -2.982176280099888E-1
331 315 -6.31940652473132E-1
331 331 1.7031146414583087
331 332 -5.18847198875158E-1
331 333 -2.5410916210003E-1
332 315 -6.148125997569422E-1
332 331 -5.18847198875158E-1
332 332 3.516330254358091
332 333 -5.859037950332585E-1
332 334 -6.780772647473539E-1
332 355 -7.115866460545329E-1
332 374 -4.071027498908452E-1
333 331 -2.5410916210003E-1
333 332 -5.859037950332585E-1
333 333 1.7559337534981836
333 334 -8.006465216564247E-1
333 335 -1.1527427470847035E-1
334 332 -6.780772647473539E-1
334 333 -8.006465216564247E-1
334 334 3.658958520223899
334 335 -6.776215349305381E-1
334 361 -7.523251351967318E-1
334 374 -7.502880636928502E-1
335 333 -1.1527427470847035E-1
335 334 -6.776215349305381E-1
335 335 1.7498492587643821
335 361 -6.999592021992251E-1
335 362 -2.5699424692614836E-1
336 296 -5.774539327476811E-1
336 297 -5.769563519865573E-1
336 336 3.464102299639863
336 337 -5.774266535981287E-1
336 338 -5.776991841060692E-1
336 379 -5.778169076582569E-1
336 380 -5.7674926954317E-1
337 296 -5.772349119954536E-1
337 299 -5.773784873032672E-1
337 336 -5.774266535981287E-1
337 337 3.4641016710002708
337 340 -5.77409447837643E-1
337 380 -5.774984964867216E-1
337 381 -5.771536737790566E-1
338 297 -5.779810992366683E-1
338 298 -5.771461478550781E-1
338 336 -5.776991841060692E-1
338 338 3.464112953453398
338 339 -5.753617086868721E-1
338 379 -5.749726771112429E-1
338 382 -5.809521364574669E-1
339 298 -5.780900156725108E-1
339 302 -5.778020403771069E-1
339 338 -5.753617086868721E-1
339 339 3.4641092165243
339 343 -5.752674847784507E-1
339 382 -5.783281874149038E-1
339 383 -5.792597795944556E-1
340 299 -5.773147373954648E-1
340 300 -5.773526476296595E-1
340 337 -5.77409447837643E-1
340 340 3.464101618437369
340 341 -5.773458979121584E-1
340 381 -5.773279150792536E-1
340 384 -5.7735097258319E-1
341 300 -5.773488520380485E-1
341 301 -5.773530512837081E-1
341 340 -5.773458979121584E-1
341 341 3.464101615272903
341 342 -5.773486818946646E-1
341 384 -5.773630586902446E-1
341 385 -5.773420734540784E-1
342 301 -5.773483059895351E-1
342 309 -5.773545563190787E-1
342 341 -5.773486818946646E-1
342 342 3.4641016151973605
342 350 -5.773436297974598E-1
342 385 -5.773572930622587E-1
342 386 -5.773491481343638E-1
343 302 -5.774029719719047E-1
343 303 -5.778645347840432E-1
343 339 -5.752674847784507E-1
343 343 3.4641102624113627
343 344 -5.774193911765483E-1
343 383 -5.8037407763462E-1
343 387 -5.757818020657961E-1
344 303 -5.771682666946881E-1
344 304 -5.774349949227577E-1
344 343 -5.774193911765483E-1
344 344 3.4641017106653367
344 345 -5.773716880819801E-1
344 387 -5.774393459141508E-1
344 388 -5.772680238752113E-1
345 304 -5.773086650195649E-1
345 305 -5.773811652214654E-1
345 344 -5.773716880819801E-1
345 345 3.464101618253841
345 346 -5.773502690328041E-1
345 388 -5.773597465007853E-1
345 389 -5.773300843972414E-1
346 305 -5.773435409777705E-1
346 306 -5.773502691896315E-1
346 345 -5.773502690328041E-1
346 346 3.464101615294578
346 347 -5.773502691896222E-1
346 389 -5.77356997715124E-1
346 390 -5.773502691896255E-1
347 306 -5.773502691896277E-1
347 310 -5.773502691896251E-1
347 346 -5.773502691896222E-1
347 347 3.4641016151377553
347 351 -5.773502691896268E-1
347 390 -5.773502691896271E-1
347 391 -5.773502691896257E-1
348 307 -3.2279006918766207E-1
348 321 -4.554083942739747E-1
348 348 1.714090919443413
348 363 -6.73950269514255E-1
348 392 -2.6194218646752154E-1
349 308 -5.773502691896238E-1
349 326 -5.773502691896268E-1
349 327 -5.773502691896363E-1
349 349 3.4641016151377544
349 369 -5.773502691896039E-1
349 370 -5.773502691896208E-1
349 393 -5.77350269189643E-1
350 309 -5.773482772516564E-1
350 328 -5.773553680627121E-1
350 342 -5.773436297974598E-1
350 350 3.4641016152862854
350 371 -5.773506948555084E-1
350 386 -5.773624331305203E-1
350 394 -5.773412121884282E-1
351 310 -5.77350269189626E-1
351 311 -5.773502691896231E-1
351 347 -5.773502691896268E-1
351 351 3.4641016154830586
351 352 -5.773402855105526E-1
351 391 -5.773602535593056E-1
351 395 -5.773502688443244E-1
352 311 -5.773502691896433E-1
352 312 -5.773502691895945E-1
352 351 -5.773402855105526E-1
352 352 3.4641016160010327
352 353 -5.773502691896344E-1
352 395 -5.773802219533936E-1
352 396 -5.773303009682148E-1
353 312 -5.773502691896515E-1
353 313 -5.773502691895591E-1
353 352 -5.773502691896344E-1
353 353 3.4641016151377553
353 354 -5.77350269189645E-1
353 396 -5.773502691896191E-1
353 397 -5.773502691896457E-1
354 313 -5.773502691896558E-1
354 314 -5.773502691895719E-1
354 330 -5.77350269189646E-1
354 353 -5.77350269189645E-1
354 354 3.464101615137755
354 373 -5.773502691896613E-1
354 397 -5.773502691895747E-1
355 315 -4.789304397672078E-1
355 316 -5.36917723947247E-1
355 332 -7.115866460545329E-1
355 355 3.497199851784855
355 356 -6.486942714531323E-1
355 374 -4.379411190458004E-1
355 398 -6.831296515169343E-1
356 316 -5.336711095915632E-1
356 317 -5.701276152009452E-1
356 355 -6.486942714531323E-1
356 356 3.468673485549666
356 357 -5.930057519831307E-1
356 398 -5.353362021717132E-1
356 399 -5.878385351491813E-1
357 317 -5.760073238535718E-1
357 318 -5.747260849981384E-1
357 356 -5.930057519831307E-1
357 357 3.464339127195846
357 358 -5.771319738885593E-1
357 399 -5.661177232828216E-1
357 400 -5.773502691896245E-1
358 318 -5.780059820908556E-1
358 319 -5.769132650884723E-1
358 357 -5.771319738885593E-1
358 358 3.464102028636768
358 359 -5.773502691896304E-1
358 400 -5.773502691896251E-1
358 401 -5.773502691896254E-1
359 319 -5.773502691896257E-1
359 320 -5.773502691896305E-1
359 358 -5.773502691896304E-1
359 359 3.464101615137755
359 360 -5.7735026918961E-1
359 401 -5.773502691896228E-1
359 402 -5.773502691896353E-1
360 320 -5.773502691896234E-1
360 329 -5.773502691896526E-1
360 359 -5.7735026918961E-1
360 360 3.4641016151377544
360 372 -5.773502691896206E-1
360 402 -5.773502691896557E-1
360 403 -5.773502691895922E-1
361 334 -7.523251351967318E-1
361 335 -6.999592021992251E-1
361 361 3.6379108215448017
361 362 -5.137165996736412E-1
361 374 -2.2256312763022673E-1
361 375 -4.801013607827251E-1
361 404 -9.692453960622515E-1
362 335 -2.5699424692614836E-1
362 361 -5.137165996736412E-1
362 362 1.7185564822457629
362 375 -5.492068800794364E-1
362 376 -3.9863875556653683E-1
363 321 -3.007631265131333E-1
363 348 -6.73950269514255E-1
363 363 3.5716756416425213
363 364 -8.973393493185298E-1
363 392 -6.344659370162518E-1
363 407 -5.124678340481159E-1
363 408 -5.526891252322355E-1
364 321 -7.755415095233807E-1
364 322 -8.117495471855483E-1
364 363 -8.973393493185298E-1
364 364 3.6872803753372057
364 365 -7.277264265852504E-1
364 408 -4.7492354272449633E-1
365 322 -4.10346379320646E-1
365 323 -5.869631662225483E-1
365 364 -7.277264265852504E-1
365 365 3.511020420525208
365 366 -6.10384519354952E-1
365 408 -6.891856411664959E-1
365 409 -4.864142878753147E-1
366 323 -5.523117963738482E-1
366 324 -5.743613466437589E-1
366 365 -6.10384519354952E-1
366 366 3.4653681234485747
366 367 -5.773502691896358E-1
366 409 -5.904452290582503E-1
366 410 -5.605149628281298E-1
367 324 -5.773502691896082E-1
367 325 -5.773502691896087E-1
367 366 -5.773502691896358E-1
367 367 3.4641017928568285
367 368 -5.773772917281033E-1
367 410 -5.770310822454364E-1
367 411 -5.776426113144365E-1
368 325 -5.773502691896197E-1
368 326 -5.773502691895974E-1
368 367 -5.773772917281033E-1
368 368 3.4641018284987606
368 369 -5.773547463761308E-1
368 411 -5.769242331040921E-1
368 412 -5.777450189112174E-1
369 326 -5.773502691896386E-1
369 349 -5.773502691896039E-1
369 368 -5.773547463761308E-1
369 369 3.464101620933323
369 393 -5.773502691896284E-1
369 412 -5.772881258327451E-1
369 413 -5.774079411555761E-1
370 327 -5.773502691896228E-1
370 328 -5.773502691896332E-1
370 349 -5.773502691896208E-1
370 370 3.4641016151377553
370 371 -5.77350269189621E-1
370 393 -5.77350269189618E-1
370 414 -5.77350269189639E-1
371 328 -5.773468279603586E-1
371 350 -5.773506948555084E-1
371 370 -5.77350269189621E-1
371 371 3.4641016153147484
371 394 -5.773632012242778E-1
371 414 -5.773502691896275E-1
371 415 -5.773403528953549E-1
372 329 -5.773502691895904E-1
372 330 -5.77350269189657E-1
372 360 -5.773502691896206E-1
372 372 3.4641016151377544
372 373 -5.773502691896358E-1
372 403 -5.77350269189671E-1
372 416 -5.773502691895794E-1
373 330 -5.773502691895696E-1
373 354 -5.773502691896613E-1
373 372 -5.773502691896358E-1
373 373 3.4641016151377553
373 397 -5.773502691896526E-1
373 416 -5.773502691896588E-1
373 417 -5.773502691895767E-1
374 332 -4.071027498908452E-1
374 334 -7.502880636928502E-1
374 355 -4.379411190458004E-1
374 361 -2.2256312763022673E-1
374 374 3.446268786047378
374 398 -5.106935730708435E-1
374 404 -5.839037389740112E-1
374 418 -5.337764137428009E-1
375 361 -4.801013607827251E-1
375 362 -5.492068800794364E-1
375 375 3.3893341702901205
375 376 -3.845229249371801E-1
375 377 -5.176980247741715E-1
375 404 -4.8619452927498746E-1
375 419 -4.4113699419668906E-1
375 420 -5.304734562449305E-1
376 362 -3.9863875556653683E-1
376 375 -3.845229249371801E-1
376 376 1.7352555926327904
376 377 -6.724195131189126E-1
376 378 -2.7967439901016083E-1
377 375 -5.176980247741715E-1
377 376 -6.724195131189126E-1
377 377 3.489167973394756
377 378 -5.773897352741397E-1
377 405 -5.503133822503987E-1
377 420 -6.38799728000057E-1
377 421 -5.325475899770764E-1
378 376 -2.7967439901016083E-1
378 377 -5.773897352741397E-1
378 378 1.7028589317352765
378 405 -6.114291417096062E-1
378 406 -2.3436565574136964E-1
379 336 -5.778169076582569E-1
379 338 -5.749726771112429E-1
379 379 3.46412785908742
379 380 -5.774962309681593E-1
379 382 -5.798215913768213E-1
379 423 -5.780499262113674E-1
379 424 -5.759705257615724E-1
380 336 -5.7674926954317E-1
380 337 -5.774984964867216E-1
380 379 -5.774962309681593E-1
380 380 3.4641062444317683
380 381 -5.775761302133597E-1
380 424 -5.793088975373191E-1
380 425 -5.754772196830387E-1
381 337 -5.771536737790566E-1
381 340 -5.773279150792536E-1
381 380 -5.775761302133597E-1
381 381 3.4641018328070436
381 384 -5.773103254031191E-1
381 425 -5.777366347490174E-1
381 426 -5.769971535832374E-1
382 338 -5.809521364574669E-1
382 339 -5.783281874149038E-1
382 379 -5.798215913768213E-1
382 382 3.4644804284351696
382 383 -5.677134760684333E-1
382 423 -5.609225487555358E-1
382 427 -5.967424883620088E-1
383 339 -5.792597795944556E-1
383 343 -5.8037407763462E-1
383 382 -5.677134760684333E-1
383 383 3.4643849788497976
383 387 -5.648289858441378E-1
383 427 -5.80945350125168E-1
383 428 -5.912633095829823E-1
384 340 -5.7735097258319E-1
384 341 -5.773630586902446E-1
384 381 -5.773103254031191E-1
384 384 3.464101621249857
384 385 -5.77354902192428E-1
384 426 -5.774270214880473E-1
384 429 -5.772953408928283E-1
385 341 -5.773420734540784E-1
385 342 -5.773572930622587E-1
385 384 -5.77354902192428E-1
385 385 3.464101615338619
385 386 -5.77343369048722E-1
385 429 -5.77356194298217E-1
385 430 -5.77347783282915E-1
386 342 -5.773491481343638E-1
386 350 -5.773624331305203E-1
386 385 -5.77343369048722E-1
386 386 3.464101616899415
386 394 -5.7732582996683E-1
386 430 -5.773644653096524E-1
386 431 -5.773563713093266E-1
387 343 -5.757818020657961E-1
387 344 -5.774393459141508E-1
387 383 -5.648289858441378E-1
387 387 3.464453542019683
387 388 -5.774095871613514E-1
387 428 -5.97906283758511E-1
387 432 -5.71087537275736E-1
388 344 -5.772680238752113E-1
388 345 -5.773597465007853E-1
388 387 -5.774095871613514E-1
388 388 3.464101621765164
388 389 -5.773637258485651E-1
388 432 -5.773502691896237E-1
388 433 -5.773502691896272E-1
389 345 -5.773300843972414E-1
389 346 -5.77356997715124E-1
389 388 -5.773637258485651E-1
389 389 3.464101615529807
389 390 -5.773502691896235E-1
389 433 -5.773502691896271E-1
389 434 -5.77350269189626E-1
390 346 -5.773502691896255E-1
390 347 -5.773502691896271E-1
390 389 -5.773502691896235E-1
390 390 3.4641016242706986
390 391 -5.772989319122791E-1
390 434 -5.77401624732865E-1
390 435 -5.773502600566786E-1
391 347 -5.773502691896257E-1
391 351 -5.773602535593056E-1
391 390 -5.772989319122791E-1
391 391 3.4641016449032516
391 395 -5.772604240206609E-1
391 435 -5.775642326125912E-1
391 436 -5.772675336087886E-1
392 348 -2.6194218646752154E-1
392 363 -6.344659370162518E-1
392 392 1.7022991996436467
392 407 -5.220806546869079E-1
392 437 -2.838104214729656E-1
393 349 -5.77350269189643E-1
393 369 -5.773502691896284E-1
393 370 -5.77350269189618E-1
393 393 3.464101615137755
393 413 -5.773502691896114E-1
393 414 -5.773502691896053E-1
393 438 -5.773502691896486E-1
394 350 -5.773412121884282E-1
394 371 -5.773632012242778E-1
394 386 -5.7732582996683E-1
394 394 3.4641016192243366
394 415 -5.773653026371253E-1
394 431 -5.774061195873714E-1
394 439 -5.772999536203041E-1
395 351 -5.773502688443244E-1
395 352 -5.773802219533936E-1
395 391 -5.772604240206609E-1
395 395 3.4641016431099225
395 396 -5.773802219533948E-1
395 436 -5.77500050966987E-1
395 440 -5.77230455371162E-1
396 352 -5.773303009682148E-1
396 353 -5.773502691896191E-1
396 395 -5.773802219533948E-1
396 396 3.4641016160010336
396 397 -5.773502691896211E-1
396 440 -5.773402855105514E-1
396 441 -5.773502691896324E-1
397 353 -5.773502691896457E-1
397 354 -5.773502691895747E-1
397 373 -5.773502691896526E-1
397 396 -5.773502691896211E-1
397 397 3.464101615137755
397 417 -5.773502691896426E-1
397 441 -5.773502691896182E-1
398 355 -6.831296515169343E-1
398 356 -5.353362021717132E-1
398 374 -5.106935730708435E-1
398 398 3.4764382171386408
398 399 -5.91604666289822E-1
398 418 -5.755130874585672E-1
398 442 -5.801610366307601E-1
399 356 -5.878385351491813E-1
399 357 -5.661177232828216E-1
399 398 -5.91604666289822E-1
399 399 3.4644961208135867
399 400 -5.773502691896298E-1
399 442 -5.642346577125006E-1
399 443 -5.773502691896315E-1
400 357 -5.773502691896245E-1
400 358 -5.773502691896251E-1
400 399 -5.773502691896298E-1
400 400 3.4641016151377544
400 401 -5.773502691896246E-1
400 443 -5.773502691896266E-1
400 444 -5.773502691896237E-1
401 358 -5.773502691896254E-1
401 359 -5.773502691896228E-1
401 400 -5.773502691896246E-1
401 401 3.464101615137755
401 402 -5.773502691896257E-1
401 444 -5.773502691896295E-1
401 445 -5.773502691896266E-1
402 359 -5.773502691896353E-1
402 360 -5.773502691896557E-1
402 401 -5.773502691896257E-1
402 402 3.4641016151377553
402 403 -5.773502691895961E-1
402 445 -5.773502691896261E-1
402 446 -5.773502691896155E-1
403 360 -5.773502691895922E-1
403 372 -5.77350269189671E-1
403 402 -5.773502691895961E-1
403 403 3.464101615137754
403 416 -5.77350269189624E-1
403 446 -5.773502691896635E-1
403 447 -5.773502691896075E-1
404 361 -9.692453960622515E-1
404 374 -5.839037389740112E-1
404 375 -4.8619452927498746E-1
404 404 3.716589365659347
404 418 -7.701025533176669E-1
404 419 -9.071431480304306E-1
405 377 -5.503133822503987E-1
405 378 -6.114291417096062E-1
405 405 3.511571031784363
405 406 -6.387942903279065E-1
405 421 -6.061605566480337E-1
405 422 -3.816234937002113E-1
405 448 -7.232501671482066E-1
406 378 -2.3436565574136964E-1
406 405 -6.387942903279065E-1
406 406 1.7055727992883245
406 422 -5.933856848962801E-1
406 449 -2.3902716832276838E-1
407 363 -5.124678340481159E-1
407 392 -5.220806546869079E-1
407 407 3.5014402191172613
407 408 -7.193938743311656E-1
407 437 -5.823707180778491E-1
407 450 -7.253414446245173E-1
407 451 -4.3978569334870554E-1
408 363 -5.526891252322355E-1
408 364 -4.7492354272449633E-1
408 365 -6.891856411664959E-1
408 407 -7.193938743311656E-1
408 408 3.5040888799451033
408 409 -6.057951074570398E-1
408 451 -4.6210158903367027E-1
409 365 -4.864142878753147E-1
409 366 -5.904452290582503E-1
409 408 -6.057951074570398E-1
409 409 3.472439103057143
409 410 -6.043052591241406E-1
409 451 -5.985009355954418E-1
409 452 -5.869782839469562E-1
410 366 -5.605149628281298E-1
410 367 -5.770310822454364E-1
410 409 -6.043052591241406E-1
410 410 3.4652069163723396
410 411 -5.781826179469594E-1
410 452 -5.539740131361959E-1
410 453 -5.911989810914771E-1
411 367 -5.776426113144365E-1
411 368 -5.769242331040921E-1
411 410 -5.781826179469594E-1
411 411 3.4641085931942617
411 412 -5.767962340984745E-1
411 453 -5.75486937119851E-1
411 454 -5.790759596104484E-1
412 368 -5.777450189112174E-1
412 369 -5.772881258327451E-1
412 411 -5.767962340984745E-1
412 412 3.4641019562702553
412 413 -5.772394069335172E-1
412 454 -5.777316307621931E-1
412 455 -5.773015397321082E-1
413 369 -5.774079411555761E-1
413 393 -5.773502691896114E-1
413 412 -5.772394069335172E-1
413 413 3.464101625799927
413 438 -5.773502691896226E-1
413 455 -5.774034701419293E-1
413 456 -5.773502691896699E-1
414 370 -5.77350269189639E-1
414 371 -5.773502691896275E-1
414 393 -5.773502691896053E-1
414 414 3.4641016151377544
414 415 -5.773502691896271E-1
414 438 -5.773502691896152E-1
414 457 -5.773502691896403E-1
415 371 -5.773403528953549E-1
415 394 -5.773653026371253E-1
415 414 -5.773502691896271E-1
415 415 3.4641016153534245
415 439 -5.77345152252056E-1
415 457 -5.773502691896171E-1
415 458 -5.773502691896444E-1
416 372 -5.773502691895794E-1
416 373 -5.773502691896588E-1
416 403 -5.77350269189624E-1
416 416 3.464101615137755
416 417 -5.773502691896478E-1
416 447 -5.773502691896483E-1
416 459 -5.773502691895965E-1
417 373 -5.773502691895767E-1
417 397 -5.773502691896426E-1
417 416 -5.773502691896478E-1
417 417 3.464101615137755
417 441 -5.773502691896313E-1
417 459 -5.773502691896347E-1
417 460 -5.773502691896215E-1
418 374 -5.337764137428009E-1
418 398 -5.755130874585672E-1
418 404 -7.701025533176669E-1
418 418 3.513798588884355
418 419 -3.7964009185696995E-1
418 442 -6.28697534293363E-1
418 461 -6.260689082149866E-1
419 375 -4.4113699419668906E-1
419 404 -9.071431480304306E-1
419 418 -3.7964009185696995E-1
419 419 3.5504465650292674
419 420 -6.412141199148489E-1
419 461 -5.622292226299941E-1
419 462 -6.19082988400335E-1
420 375 -5.304734562449305E-1
420 377 -6.38799728000057E-1
420 419 -6.412141199148489E-1
420 420 3.485520222488686
420 421 -6.556491747759132E-1
420 462 -5.328890143226124E-1
420 463 -4.864947292303238E-1
421 377 -5.325475899770764E-1
421 405 -6.061605566480337E-1
421 420 -6.556491747759132E-1
421 421 3.504156115320705
421 448 -6.469413917187028E-1
421 463 -6.7321087051137E-1
421 464 -3.896465316896081E-1
422 405 -3.816234937002113E-1
422 406 -5.933856848962801E-1
422 422 3.5499228103508997
422 448 -9.104533065400718E-1
422 449 -6.356994169645993E-1
422 465 -5.696250369372151E-1
422 466 -4.59135871312522E-1
423 379 -5.780499262113674E-1
423 382 -5.609225487555358E-1
423 423 3.468165635657651
423 424 -5.32983248459789E-1
423 427 -5.58489707707477E-1
423 468 -6.213168327541484E-1
423 469 -6.164033717693332E-1
424 379 -5.759705257615724E-1
424 380 -5.793088975373191E-1
424 423 -5.32983248459789E-1
424 424 3.4701195176919173
424 425 -5.363319510072726E-1
424 469 -6.515130871692791E-1
424 470 -5.940118077566854E-1
425 380 -5.754772196830387E-1
425 381 -5.777366347490174E-1
425 424 -5.363319510072726E-1
425 425 3.4684977175225287
425 426 -5.640511167200775E-1
425 470 -6.527491163075357E-1
425 471 -5.621516790555869E-1
426 381 -5.769971535832374E-1
426 384 -5.774270214880473E-1
426 425 -5.640511167200775E-1
426 426 3.4648219716987567
426 429 -5.774242978305828E-1
426 471 -6.065610411544742E-1
426 472 -5.623613409223374E-1
427 382 -5.967424883620088E-1
427 383 -5.80945350125168E-1
427 423 -5.58489707707477E-1
427 427 3.4704411156722
427 428 -5.160025517943132E-1
427 468 -5.586138753057421E-1
427 473 -6.596471423774909E-1
428 383 -5.912633095829823E-1
428 387 -5.97906283758511E-1
428 427 -5.160025517943132E-1
428 428 3.4710100967462756
428 432 -5.599864759101232E-1
428 473 -6.649217143217203E-1
428 474 -5.409297613786255E-1
429 384 -5.772953408928283E-1
429 385 -5.77356194298217E-1
429 426 -5.774242978305828E-1
429 429 3.4641016205557165
429 430 -5.773645787034349E-1
429 472 -5.773190109469315E-1
429 475 -5.773421978837221E-1
430 385 -5.77347783282915E-1
430 386 -5.773644653096524E-1
430 429 -5.773645787034349E-1
430 430 3.464101683368079
430 431 -5.771397276590151E-1
430 475 -5.77489244449704E-1
430 476 -5.773958839633575E-1
431 386 -5.773563713093266E-1
431 394 -5.774061195873714E-1
431 430 -5.771397276590151E-1
431 431 3.4641017714740516
431 439 -5.774279058734644E-1
431 476 -5.777132511465434E-1
431 477 -5.770583958983307E-1
432 387 -5.71087537275736E-1
432 388 -5.773502691896237E-1
432 428 -5.599864759101232E-1
432 432 3.4655067308215752
432 433 -5.563250135754365E-1
432 474 -6.155312500320976E-1
432 478 -5.852261848385585E-1
433 388 -5.773502691896272E-1
433 389 -5.773502691896271E-1
433 432 -5.563250135754365E-1
433 433 3.465152778852379
433 434 -5.773502691896262E-1
433 478 -6.116557735187618E-1
433 479 -5.651211841893002E-1
434 389 -5.77350269189626E-1
434 390 -5.77401624732865E-1
434 433 -5.773502691896262E-1
434 434 3.4641016379676786
434 435 -5.771962482197641E-1
434 479 -5.773502691896228E-1
434 480 -5.774529574461749E-1
435 390 -5.773502600566786E-1
435 391 -5.775642326125912E-1
435 434 -5.771962482197641E-1
435 435 3.46410191635424
435 436 -5.770167494853076E-1
435 480 -5.775046004993903E-1
435 481 -5.774698254805082E-1
436 391 -5.772675336087886E-1
436 395 -5.77500050966987E-1
436 435 -5.770167494853076E-1
436 436 3.4641022344675916
436 440 -5.775399887915854E-1
436 481 -5.780439443515466E-1
436 482 -5.767339672633762E-1
437 392 -2.838104214729656E-1
437 407 -5.823707180778491E-1
437 437 1.7016574841592818
437 450 -5.79141301270889E-1
437 483 -2.5633504333757806E-1
438 393 -5.773502691896486E-1
438 413 -5.773502691896226E-1
438 414 -5.773502691896152E-1
438 438 3.464101615137755
438 456 -5.773502691895713E-1
438 457 -5.773502691896297E-1
438 484 -5.77350269189667E-1
439 394 -5.772999536203041E-1
439 415 -5.77345152252056E-1
439 431 -5.774279058734644E-1
439 439 3.4641016203309043
439 458 -5.773457135953097E-1
439 477 -5.773570027618391E-1
439 485 -5.773258922279312E-1
440 395 -5.77230455371162E-1
440 396 -5.773402855105514E-1
440 436 -5.775399887915854E-1
440 440 3.4641016634238575
440 441 -5.773582386808839E-1
440 482 -5.773917122919225E-1
440 486 -5.772409827777524E-1
441 396 -5.773502691896324E-1
441 397 -5.773502691896182E-1
441 417 -5.773502691896313E-1
441 440 -5.773582386808839E-1
441 441 3.4641016303512693
441 460 -5.772568875842492E-1
441 486 -5.774356965172547E-1
442 398 -5.801610366307601E-1
442 399 -5.642346577125006E-1
442 418 -6.28697534293363E-1
442 442 3.4664062650247187
442 443 -5.773502691896233E-1
442 461 -5.421000567454424E-1
442 487 -5.738627104530296E-1
443 399 -5.773502691896315E-1
443 400 -5.773502691896266E-1
443 442 -5.773502691896233E-1
443 443 3.4641016151377544
443 444 -5.773502691896242E-1
443 487 -5.773502691896262E-1
443 488 -5.773502691896228E-1
444 400 -5.773502691896237E-1
444 401 -5.773502691896295E-1
444 443 -5.773502691896242E-1
444 444 3.464101615137755
444 445 -5.773502691896262E-1
444 488 -5.773502691896316E-1
444 489 -5.773502691896193E-1
445 401 -5.773502691896266E-1
445 402 -5.773502691896261E-1
445 444 -5.773502691896262E-1
445 445 3.4641016151377553
445 446 -5.773502691896252E-1
445 489 -5.773502691896228E-1
445 490 -5.773502691896282E-1
446 402 -5.773502691896155E-1
446 403 -5.773502691896635E-1
446 445 -5.773502691896252E-1
446 446 3.4641016151377544
446 447 -5.773502691896193E-1
446 490 -5.773502691896328E-1
446 491 -5.773502691895982E-1
447 403 -5.773502691896075E-1
447 416 -5.773502691896483E-1
447 446 -5.773502691896193E-1
447 447 3.464101615137755
447 459 -5.773502691896227E-1
447 491 -5.773502691896495E-1
447 492 -5.773502691896073E-1
448 405 -7.232501671482066E-1
448 421 -6.469413917187028E-1
448 422 -9.104533065400718E-1
448 448 3.6961636627462093
448 464 -9.046517577015392E-1
448 466 -5.108670396376891E-1
449 406 -2.3902716832276838E-1
449 422 -6.356994169645993E-1
449 449 1.7039556404259169
449 465 -5.801794461784934E-1
449 467 -2.4904960896005585E-1
450 407 -7.253414446245173E-1
450 437 -5.79141301270889E-1
450 450 3.558332302936849
450 451 -6.876240048081688E-1
450 483 -6.110872793836861E-1
450 495 -7.405629550159316E-1
450 496 -2.1457531783365646E-1
451 407 -4.3978569334870554E-1
451 408 -4.6210158903367027E-1
451 409 -5.985009355954418E-1
451 450 -6.876240048081688E-1
451 451 3.5002998946723043
451 452 -6.01188974836614E-1
451 496 -7.110986970497036E-1
452 409 -5.869782839469562E-1
452 410 -5.539740131361959E-1
452 451 -6.01188974836614E-1
452 452 3.47383056340286
452 453 -5.578129085253556E-1
452 496 -5.192504950900237E-1
452 497 -6.54625887867714E-1
453 410 -5.911989810914771E-1
453 411 -5.75486937119851E-1
453 452 -5.578129085253556E-1
453 453 3.4645355963466575
453 454 -5.733447884333829E-1
453 497 -5.910970092488179E-1
453 498 -5.755949719277731E-1
454 411 -5.790759596104484E-1
454 412 -5.777316307621931E-1
454 453 -5.733447884333829E-1
454 454 3.4641145150347468
454 455 -5.773458026317267E-1
454 498 -5.792660644073275E-1
454 499 -5.773502691896684E-1
455 412 -5.773015397321082E-1
455 413 -5.774034701419293E-1
455 454 -5.773458026317267E-1
455 455 3.464101620074639
455 456 -5.773502691896354E-1
455 499 -5.773502691895975E-1
455 500 -5.773502691896419E-1
456 413 -5.773502691896699E-1
456 438 -5.773502691895713E-1
456 455 -5.773502691896354E-1
456 456 3.4641016151377553
456 484 -5.773502691896311E-1
456 500 -5.773502691896122E-1
456 501 -5.773502691896348E-1
457 414 -5.773502691896403E-1
457 415 -5.773502691896171E-1
457 438 -5.773502691896297E-1
457 457 3.4641016151377553
457 458 -5.773502691896064E-1
457 484 -5.773502691895918E-1
457 502 -5.773502691896695E-1
458 415 -5.773502691896444E-1
458 439 -5.773457135953097E-1
458 457 -5.773502691896064E-1
458 458 3.4641016157369204
458 485 -5.773728579161733E-1
458 502 -5.773502691896166E-1
458 503 -5.773322366565701E-1
459 416 -5.773502691895965E-1
459 417 -5.773502691896347E-1
459 447 -5.773502691896227E-1
459 459 3.464101615137755
459 460 -5.773502691896351E-1
459 492 -5.773502691896478E-1
459 504 -5.77350269189618E-1
460 417 -5.773502691896215E-1
460 441 -5.772568875842492E-1
460 459 -5.773502691896351E-1
460 460 3.464101648033873
460 486 -5.775450210802133E-1
460 504 -5.773502691896275E-1
460 505 -5.772489318005267E-1
461 418 -6.260689082149866E-1
461 419 -5.622292226299941E-1
461 442 -5.421000567454424E-1
461 461 3.466542235995605
461 462 -5.660352514986393E-1
461 487 -5.87145814979029E-1
461 506 -5.829629819275133E-1
462 419 -6.19082988400335E-1
462 420 -5.328890143226124E-1
462 461 -5.660352514986393E-1
462 462 3.46712231311332
462 463 -6.174476688745438E-1
462 506 -5.796681524844282E-1
462 507 -5.519992375327616E-1
463 420 -4.864947292303238E-1
463 421 -6.7321087051137E-1
463 462 -6.174476688745438E-1
463 463 3.4797663854149117
463 464 -5.959051874976525E-1
463 507 -6.121530340775206E-1
463 508 -4.945548952235007E-1
464 421 -3.896465316896081E-1
464 448 -9.046517577015392E-1
464 463 -5.959051874976525E-1
464 464 3.556381065520303
464 466 -4.288043090056206E-1
464 508 -6.973585947560724E-1
464 509 -5.400146848698105E-1
465 422 -5.696250369372151E-1
465 449 -5.801794461784934E-1
465 465 3.5126081613765727
465 466 -5.161967737213817E-1
465 467 -6.157733540512873E-1
465 493 -4.227848797885955E-1
465 510 -8.080486706996002E-1
466 422 -4.59135871312522E-1
466 448 -5.108670396376891E-1
466 464 -4.288043090056206E-1
466 465 -5.161967737213817E-1
466 466 3.4029792908795313
466 509 -5.986732336081315E-1
466 510 -5.360632725441932E-1
466 538 -3.532387910499931E-1
467 449 -2.4904960896005585E-1
467 465 -6.157733540512873E-1
467 467 1.7029635541766648
467 493 -5.92874814317825E-1
467 494 -2.4526577684749684E-1
468 423 -6.213168327541484E-1
468 427 -5.586138753057421E-1
468 468 3.4758984118765985
468 469 -5.674743278002814E-1
468 473 -5.324333565214641E-1
468 513 -6.671149077466155E-1
468 514 -5.289451117483469E-1
469 423 -6.164033717693332E-1
469 424 -6.515130871692791E-1
469 468 -5.674743278002814E-1
469 469 3.5573050356805975
469 470 -3.582730912934349E-1
469 514 -4.684169149070228E-1
469 515 -8.952242427412453E-1
470 424 -5.940118077566854E-1
470 425 -6.527491163075357E-1
470 469 -3.582730912934349E-1
470 470 3.5253214044524714
470 471 -4.810898841865791E-1
470 515 -7.982143127178115E-1
470 516 -6.40983192190425E-1
471 425 -5.621516790555869E-1
471 426 -6.065610411544742E-1
471 470 -4.810898841865791E-1
471 471 3.474231949481614
471 472 -5.808807484868278E-1
471 516 -6.55733135871782E-1
471 517 -5.878154607263639E-1
472 426 -5.623613409223374E-1
472 429 -5.773190109469315E-1
472 471 -5.808807484868278E-1
472 472 3.464643599140793
472 475 -5.723812321534725E-1
472 517 -6.00182974556599E-1
472 518 -5.715182920746253E-1
473 427 -6.596471423774909E-1
473 428 -6.649217143217203E-1
473 468 -5.324333565214641E-1
473 473 3.5124049227357785
473 474 -6.366637370523136E-1
473 513 -6.514866646338233E-1
473 519 -3.672523078289661E-1
474 428 -5.409297613786255E-1
474 432 -6.155312500320976E-1
474 473 -6.366637370523136E-1
474 474 3.5153346045971743
474 478 -4.3593442206956684E-1
474 519 -5.592616044330683E-1
474 520 -7.270138296315023E-1
475 429 -5.773421978837221E-1
475 430 -5.77489244449704E-1
475 472 -5.723812321534725E-1
475 475 3.4643216970176094
475 476 -5.760839363920044E-1
475 518 -5.935816059526586E-1
475 521 -5.67443480186048E-1
476 430 -5.773958839633575E-1
476 431 -5.777132511465434E-1
476 475 -5.760839363920044E-1
476 476 3.464107151679959
476 477 -5.777773079955499E-1
476 521 -5.794634833073821E-1
476 522 -5.756732888751224E-1
477 431 -5.770583958983307E-1
477 439 -5.773570027618391E-1
477 476 -5.777773079955499E-1
477 477 3.4641017841262114
477 485 -5.773223448430496E-1
477 522 -5.772566655930098E-1
477 523 -5.773300670344325E-1
478 432 -5.852261848385585E-1
478 433 -6.116557735187618E-1
478 474 -4.3593442206956684E-1
478 478 3.5276082919771654
478 479 -5.812208654481382E-1
478 520 -8.68384430191758E-1
478 524 -4.451866159103821E-1
479 433 -5.651211841893002E-1
479 434 -5.773502691896228E-1
479 478 -5.812208654481382E-1
479 479 3.4649182411453276
479 480 -5.666938968171038E-1
479 524 -5.976080202617097E-1
479 525 -5.769240052394525E-1
480 434 -5.774529574461749E-1
480 435 -5.775046004993903E-1
480 479 -5.666938968171038E-1
480 480 3.465166357176459
480 481 -5.746394065135083E-1
480 525 -6.132859861052367E-1
480 526 -5.555895097950447E-1
481 435 -5.774698254805082E-1
481 436 -5.780439443515466E-1
481 480 -5.746394065135083E-1
481 481 3.464129808391585
481 482 -5.780688294673852E-1
481 526 -5.828193426269049E-1
481 527 -5.730884599517319E-1
482 436 -5.767339672633762E-1
482 440 -5.773917122919225E-1
482 481 -5.780688294673852E-1
482 482 3.4641046982817087
482 486 -5.772037930609257E-1
482 527 -5.790149011914385E-1
482 528 -5.756914950066605E-1
483 437 -2.5633504333757806E-1
483 450 -6.110872793836861E-1
483 483 1.701107635248476
483 495 -5.450101779323981E-1
483 529 -2.886751345948137E-1
484 438 -5.77350269189667E-1
484 456 -5.773502691896311E-1
484 457 -5.773502691895918E-1
484 484 3.4641016151377544
484 501 -5.773502691896377E-1
484 502 -5.773502691895768E-1
484 530 -5.773502691896502E-1
485 439 -5.773258922279312E-1
485 458 -5.773728579161733E-1
485 477 -5.773223448430496E-1
485 485 3.4641016271412464
485 503 -5.773817788696813E-1
485 523 -5.774323043719497E-1
485 531 -5.772664489124609E-1
486 440 -5.772409827777524E-1
486 441 -5.774356965172547E-1
486 460 -5.775450210802133E-1
486 482 -5.772037930609257E-1
486 486 3.4641021374405834
486 505 -5.768993050963229E-1
486 528 -5.777773389081149E-1
487 442 -5.738627104530296E-1
487 443 -5.773502691896262E-1
487 461 -5.87145814979029E-1
487 487 3.464190314513091
487 488 -5.773502691896225E-1
487 506 -5.711309815121594E-1
487 532 -5.773502691896242E-1
488 443 -5.773502691896228E-1
488 444 -5.773502691896316E-1
488 487 -5.773502691896225E-1
488 488 3.4641016151377544
488 489 -5.773502691896282E-1
488 532 -5.773502691896295E-1
488 533 -5.7735026918962E-1
489 444 -5.773502691896193E-1
489 445 -5.773502691896228E-1
489 488 -5.773502691896282E-1
489 489 3.4641016151377544
489 490 -5.773502691896325E-1
489 533 -5.77350269189626E-1
489 534 -5.77350269189626E-1
490 445 -5.773502691896282E-1
490 446 -5.773502691896328E-1
490 489 -5.773502691896325E-1
490 490 3.464101615137755
490 491 -5.773502691896227E-1
490 534 -5.773502691896202E-1
490 535 -5.773502691896186E-1
491 446 -5.773502691895982E-1
491 447 -5.773502691896495E-1
491 490 -5.773502691896227E-1
491 491 3.4641016151377544
491 492 -5.77350269189625E-1
491 535 -5.773502691896413E-1
491 536 -5.773502691896177E-1
492 447 -5.773502691896073E-1
492 459 -5.773502691896478E-1
492 491 -5.77350269189625E-1
492 492 3.4641016151377544
492 504 -5.773502691896273E-1
492 536 -5.773502691896426E-1
492 537 -5.773502691896047E-1
493 465 -4.227848797885955E-1
493 467 -5.92874814317825E-1
493 493 3.5338947673814385
493 494 -6.066488877648186E-1
493 510 -8.590799590390032E-1
493 511 -6.152909070622838E-1
493 539 -4.3721531940891234E-1
494 467 -2.4526577684749684E-1
494 493 -6.066488877648186E-1
494 494 1.703961250457958
494 511 -6.129377146745525E-1
494 512 -2.3910887117109014E-1
495 450 -7.405629550159316E-1
495 483 -5.450101779323981E-1
495 495 3.561594585347063
495 496 -5.118901713678394E-1
495 529 -5.444987036133173E-1
495 541 -4.1746379591811456E-1
495 542 -8.021687814994622E-1
496 450 -2.1457531783365646E-1
496 451 -7.110986970497036E-1
496 452 -5.192504950900237E-1
496 495 -5.118901713678394E-1
496 496 3.517082368829156
496 497 -4.186152553801968E-1
496 542 -8.086904345111962E-1
496 543 -3.3296199759653955E-1
497 452 -6.54625887867714E-1
497 453 -5.910970092488179E-1
497 496 -4.186152553801968E-1
497 497 3.4980651352244694
497 498 -5.771961710145153E-1
497 543 -7.299488405434429E-1
497 544 -5.265819711697821E-1
498 453 -5.755949719277731E-1
498 454 -5.792660644073275E-1
498 497 -5.771961710145153E-1
498 498 3.4641080149184584
498 499 -5.773502691895926E-1
498 544 -5.77350269189631E-1
498 545 -5.773502691896187E-1
499 454 -5.773502691896684E-1
499 455 -5.773502691895975E-1
499 498 -5.773502691895926E-1
499 499 3.464101615137755
499 500 -5.773502691896285E-1
499 545 -5.773502691896321E-1
499 546 -5.773502691896354E-1
500 455 -5.773502691896419E-1
500 456 -5.773502691896122E-1
500 499 -5.773502691896285E-1
500 500 3.4641016151377544
500 501 -5.773502691896268E-1
500 546 -5.773502691896248E-1
500 547 -5.773502691896202E-1
501 456 -5.773502691896348E-1
501 484 -5.773502691896377E-1
501 500 -5.773502691896268E-1
501 501 3.464101615137755
501 530 -5.773502691895893E-1
501 547 -5.77350269189638E-1
501 548 -5.773502691896275E-1
502 457 -5.773502691896695E-1
502 458 -5.773502691896166E-1
502 484 -5.773502691895768E-1
502 502 3.464101615137755
502 503 -5.773502691896051E-1
502 530 -5.773502691896336E-1
502 549 -5.77350269189653E-1
503 458 -5.773322366565701E-1
503 485 -5.773817788696813E-1
503 502 -5.773502691896051E-1
503 503 3.46410161601555
503 531 -5.773367929204436E-1
503 549 -5.773502691896244E-1
503 550 -5.773502691896254E-1
504 459 -5.77350269189618E-1
504 460 -5.773502691896275E-1
504 492 -5.773502691896273E-1
504 504 3.46410213042075
504 505 -5.776232427820598E-1
504 537 -5.768780099315061E-1
504 551 -5.775500701383118E-1
505 460 -5.772489318005267E-1
505 486 -5.768993050963229E-1
505 504 -5.776232427820598E-1
505 505 3.4641065500564676
505 528 -5.791622737479257E-1
505 551 -5.75020423811051E-1
505 552 -5.781523728185816E-1
506 461 -5.829629819275133E-1
506 462 -5.796681524844282E-1
506 487 -5.711309815121594E-1
506 506 3.4641616276256144
506 507 -5.756989733222576E-1
506 532 -5.77350269189626E-1
506 553 -5.773502691896297E-1
507 462 -5.519992375327616E-1
507 463 -6.121530340775206E-1
507 506 -5.756989733222576E-1
507 507 3.4652124484256674
507 508 -5.771585002497305E-1
507 553 -5.773502691896242E-1
507 554 -5.70852434053773E-1
508 463 -4.945548952235007E-1
508 464 -6.973585947560724E-1
508 507 -5.771585002497305E-1
508 508 3.474985104434275
508 509 -5.574095301706037E-1
508 554 -5.856094299488263E-1
508 555 -5.628941540855417E-1
509 464 -5.400146848698105E-1
509 466 -5.986732336081315E-1
509 508 -5.574095301706037E-1
509 509 3.4698542635173304
509 538 -6.258105951379611E-1
509 555 -5.97824957395225E-1
509 556 -5.50121262335598E-1
510 465 -8.080486706996002E-1
510 466 -5.360632725441932E-1
510 493 -8.590799590390032E-1
510 510 3.7015429604984518
510 538 -9.315963893455731E-1
510 539 -5.667546688700822E-1
511 493 -6.152909070622838E-1
511 494 -6.129377146745525E-1
511 511 3.5390135834837277
511 512 -6.050343076096468E-1
511 539 -4.24436371366163E-1
511 540 -4.1228305039468366E-1
511 557 -8.690312323763978E-1
512 494 -2.3910887117109014E-1
512 511 -6.050343076096468E-1
512 512 1.7045027596883742
512 540 -6.202120940041967E-1
512 558 -2.4014748690344045E-1
513 468 -6.671149077466155E-1
513 473 -6.514866646338233E-1
513 513 3.5305262076808193
513 514 -3.9394378339221386E-1
513 519 -4.2626712517902354E-1
513 559 -7.139810514994206E-1
513 560 -6.777326752297222E-1
514 468 -5.289451117483469E-1
514 469 -4.684169149070228E-1
514 513 -3.9394378339221386E-1
514 514 3.464326323793292
514 515 -6.929564850178848E-1
514 559 -5.934495827664904E-1
514 561 -1.6074145649029908E-1
514 587 -6.258729894710338E-1
515 469 -8.952242427412453E-1
515 470 -7.982143127178115E-1
515 514 -6.929564850178848E-1
515 515 3.7270716129415624
515 516 -4.2035156477473845E-1
515 561 -9.203250076898827E-1
516 470 -6.40983192190425E-1
516 471 -6.55733135871782E-1
516 515 -4.2035156477473845E-1
516 516 3.510799596596584
516 517 -4.99948103609062E-1
516 561 -7.025098929850249E-1
516 562 -5.912737071655516E-1
517 471 -5.878154607263639E-1
517 472 -6.00182974556599E-1
517 516 -4.99948103609062E-1
517 517 3.484583902963068
517 518 -5.345765887120766E-1
517 562 -6.053982436296602E-1
517 563 -6.566625317293066E-1
518 472 -5.715182920746253E-1
518 475 -5.935816059526586E-1
518 517 -5.345765887120766E-1
518 518 3.4726348844207107
518 521 -5.891871168178766E-1
518 563 -6.764285027636381E-1
518 564 -5.073427780998353E-1
519 473 -3.672523078289661E-1
519 474 -5.592616044330683E-1
519 513 -4.2626712517902354E-1
519 519 3.420298233548764
519 520 -6.10934849971928E-1
519 560 -5.872455267630928E-1
519 565 -3.9624276740559145E-1
519 588 -4.7309405196709375E-1
520 474 -7.270138296315023E-1
520 478 -8.68384430191758E-1
520 519 -6.10934849971928E-1
520 520 3.6902839049830307
520 524 -5.398977273305424E-1
520 565 -9.440530678572998E-1
521 475 -5.67443480186048E-1
521 476 -5.794634833073821E-1
521 518 -5.891871168178766E-1
521 521 3.4643934457399936
521 522 -5.792023726986923E-1
521 564 -5.855217784187612E-1
521 566 -5.635752143112334E-1
522 476 -5.756732888751224E-1
522 477 -5.772566655930098E-1
522 521 -5.792023726986923E-1
522 522 3.4641210162893574
522 523 -5.770518980047026E-1
522 566 -5.811108588678369E-1
522 567 -5.738259322499935E-1
523 477 -5.773300670344325E-1
523 485 -5.774323043719497E-1
523 522 -5.770518980047026E-1
523 523 3.4641021302923587
523 531 -5.774895572570296E-1
523 567 -5.780121811221669E-1
523 568 -5.767861225020778E-1
524 478 -4.451866159103821E-1
524 479 -5.976080202617097E-1
524 520 -5.398977273305424E-1
524 524 3.431374838187366
524 525 -4.8232909872790775E-1
524 565 -2.600911073345754E-1
524 569 -3.9484430756461303E-1
524 589 -7.114179610576357E-1
525 479 -5.769240052394525E-1
525 480 -6.132859861052367E-1
525 524 -4.8232909872790775E-1
525 525 3.488389335954333
525 526 -5.556115996432127E-1
525 569 -7.472631051372347E-1
525 570 -5.129755411012884E-1
526 480 -5.555895097950447E-1
526 481 -5.828193426269049E-1
526 525 -5.556115996432127E-1
526 526 3.46887807034529
526 527 -5.618493338934272E-1
526 570 -6.581905452011584E-1
526 571 -5.54817739185542E-1
527 481 -5.730884599517319E-1
527 482 -5.790149011914385E-1
527 526 -5.618493338934272E-1
527 527 3.4652761682541184
527 528 -5.786685332179868E-1
527 571 -6.156130354260134E-1
527 572 -5.570419045735207E-1
528 482 -5.756914950066605E-1
528 486 -5.777773389081149E-1
528 505 -5.791622737479257E-1
528 527 -5.786685332179868E-1
528 528 3.46411615869913
528 552 -5.731353728574249E-1
528 572 -5.796811449610171E-1
529 483 -2.886751345948137E-1
529 495 -5.444987036133173E-1
529 529 1.7022311817776912
529 541 -6.229061591276186E-1
529 573 -2.4615118444194156E-1
530 484 -5.773502691896502E-1
530 501 -5.773502691895893E-1
530 502 -5.773502691896336E-1
530 530 3.4641016151377544
530 548 -5.773502691896442E-1
530 549 -5.773502691895872E-1
530 574 -5.7735026918965E-1
531 485 -5.772664489124609E-1
531 503 -5.773367929204436E-1
531 523 -5.774895572570296E-1
531 531 3.4641016412817844
531 550 -5.773502691896306E-1
531 568 -5.774165022020818E-1
531 575 -5.772420708001382E-1
532 487 -5.773502691896242E-1
532 488 -5.773502691896295E-1
532 506 -5.77350269189626E-1
532 532 3.464101615137755
532 533 -5.773502691896301E-1
532 553 -5.773502691896213E-1
532 576 -5.773502691896237E-1
533 488 -5.7735026918962E-1
533 489 -5.77350269189626E-1
533 532 -5.773502691896301E-1
533 533 3.464101615137755
533 534 -5.773502691896266E-1
533 576 -5.773502691896283E-1
533 577 -5.77350269189624E-1
534 489 -5.77350269189626E-1
534 490 -5.773502691896202E-1
534 533 -5.773502691896266E-1
534 534 3.464101615137755
534 535 -5.773502691896343E-1
534 577 -5.773502691896301E-1
534 578 -5.773502691896177E-1
535 490 -5.773502691896186E-1
535 491 -5.773502691896413E-1
535 534 -5.773502691896343E-1
535 535 3.4641016151377544
535 536 -5.773502691896285E-1
535 578 -5.773502691896253E-1
535 579 -5.773502691896065E-1
536 491 -5.773502691896177E-1
536 492 -5.773502691896426E-1
536 535 -5.773502691896285E-1
536 536 3.4641016151377544
536 537 -5.773502691896183E-1
536 579 -5.773502691896266E-1
536 580 -5.773502691896208E-1
537 492 -5.773502691896047E-1
537 504 -5.768780099315061E-1
537 536 -5.773502691896183E-1
537 537 3.4641029772926566
537 551 -5.787795694590785E-1
537 580 -5.770257947535616E-1
537 581 -5.767190647692872E-1
538 466 -3.532387910499931E-1
538 509 -6.258105951379611E-1
538 510 -9.315963893455731E-1
538 538 3.5622222279870783
538 539 -4.1185255032490387E-1
538 556 -6.447909920198778E-1
538 582 -5.94932910108769E-1
539 493 -4.3721531940891234E-1
539 510 -5.667546688700822E-1
539 511 -4.24436371366163E-1
539 538 -4.1185255032490387E-1
539 539 3.4071644633191265
539 557 -5.814236428939452E-1
539 582 -5.979334585242997E-1
539 583 -3.875484519308196E-1
540 511 -4.1228305039468366E-1
540 512 -6.202120940041967E-1
540 540 3.5021059177071483
540 557 -7.164612721660935E-1
540 558 -6.232202626467362E-1
540 584 -5.629297898309452E-1
540 585 -5.669994486644929E-1
541 495 -4.1746379591811456E-1
541 529 -6.229061591276186E-1
541 541 3.5171207299280614
541 542 -7.889792100211568E-1
541 573 -6.205999990922324E-1
541 590 -4.778351686931712E-1
541 591 -5.893363970757677E-1
542 495 -8.021687814994622E-1
542 496 -8.086904345111962E-1
542 541 -7.889792100211568E-1
542 542 3.6747762444611296
542 543 -7.764416613796067E-1
542 591 -4.984961570497082E-1
543 496 -3.3296199759653955E-1
543 497 -7.299488405434429E-1
543 542 -7.764416613796067E-1
543 543 3.5537664533223263
543 544 -6.512605292265393E-1
543 591 -6.132250435643073E-1
543 592 -4.4992838101189064E-1
544 497 -5.265819711697821E-1
544 498 -5.77350269189631E-1
544 543 -6.512605292265393E-1
544 544 3.469476984185197
544 545 -5.752188618901974E-1
544 592 -5.892317975548117E-1
544 593 -5.498335551542357E-1
545 498 -5.773502691896187E-1
545 499 -5.773502691896321E-1
545 544 -5.752188618901974E-1
545 545 3.4641449415386303
545 546 -5.773502691896264E-1
545 593 -5.840372331421169E-1
545 594 -5.728380389374391E-1
546 499 -5.773502691896354E-1
546 500 -5.773502691896248E-1
546 545 -5.773502691896264E-1
546 546 3.4641016151377544
546 547 -5.773502691896251E-1
546 594 -5.773502691896208E-1
546 595 -5.773502691896221E-1
547 500 -5.773502691896202E-1
547 501 -5.77350269189638E-1
547 546 -5.773502691896251E-1
547 547 3.4641016151377544
547 548 -5.773502691896106E-1
547 595 -5.773502691896326E-1
547 596 -5.77350269189628E-1
548 501 -5.773502691896275E-1
548 530 -5.773502691896442E-1
548 547 -5.773502691896106E-1
548 548 3.464101615137755
548 574 -5.773502691895928E-1
548 596 -5.773502691896393E-1
548 597 -5.773502691896404E-1
549 502 -5.77350269189653E-1
549 503 -5.773502691896244E-1
549 530 -5.773502691895872E-1
549 549 3.4641016151377544
549 550 -5.773502691896263E-1
549 574 -5.773502691896301E-1
549 598 -5.773502691896337E-1
550 503 -5.773502691896254E-1
550 531 -5.773502691896306E-1
550 549 -5.773502691896263E-1
550 550 3.4641016151377544
550 575 -5.773502691896149E-1
550 598 -5.773502691896246E-1
550 599 -5.773502691896326E-1
551 504 -5.775500701383118E-1
551 505 -5.75020423811051E-1
551 537 -5.787795694590785E-1
551 551 3.4641100087177685
551 552 -5.801906721890833E-1
551 581 -5.764268675166832E-1
551 600 -5.761424056035612E-1
552 505 -5.781523728185816E-1
552 528 -5.731353728574249E-1
552 551 -5.801906721890833E-1
552 552 3.4641343288094073
552 572 -5.816401391802506E-1
552 600 -5.738336755891045E-1
552 601 -5.771820961749623E-1
553 506 -5.773502691896297E-1
553 507 -5.773502691896242E-1
553 532 -5.773502691896213E-1
553 553 3.4641016151377553
553 554 -5.773502691896245E-1
553 576 -5.773502691896292E-1
553 602 -5.773502691896258E-1
554 507 -5.70852434053773E-1
554 508 -5.856094299488263E-1
554 553 -5.773502691896245E-1
554 554 3.4641810054374425
554 555 -5.790498563574309E-1
554 602 -5.77350269189629E-1
554 603 -5.739687466981587E-1
555 508 -5.628941540855417E-1
555 509 -5.97824957395225E-1
555 554 -5.790498563574309E-1
555 555 3.4644981376458697
555 556 -5.642278894775348E-1
555 603 -5.826788469213502E-1
555 604 -5.778224334087867E-1
556 509 -5.50121262335598E-1
556 538 -6.447909920198778E-1
556 555 -5.642278894775348E-1
556 556 3.4672736701525015
556 582 -5.519743249072155E-1
556 604 -5.788089322226411E-1
556 605 -5.773502691896348E-1
557 511 -8.690312323763978E-1
557 539 -5.814236428939452E-1
557 540 -7.164612721660935E-1
557 557 3.670017134463975
557 583 -8.596056351988055E-1
557 585 -6.434953518287327E-1
558 512 -2.4014748690344045E-1
558 540 -6.232202626467362E-1
558 558 1.7026422745277194
558 584 -5.526452255732839E-1
558 586 -2.8662929940425885E-1
559 513 -7.139810514994206E-1
559 514 -5.934495827664904E-1
559 559 1.9062408995192044
559 560 -2.814235881079567E-1
559 587 -3.1738667714533675E-1
560 513 -6.777326752297222E-1
560 519 -5.872455267630928E-1
560 559 -2.814235881079567E-1
560 560 1.9119989923166538
560 588 -3.655972022158818E-1
561 514 -1.6074145649029908E-1
561 515 -9.203250076898827E-1
561 516 -7.025098929850249E-1
561 561 3.696366001491654
561 562 -3.2586666191600044E-1
561 587 -7.492958618711671E-1
561 607 -8.3762712053928E-1
562 516 -5.912737071655516E-1
562 517 -6.053982436296602E-1
562 561 -3.2586666191600044E-1
562 562 3.4059832054794352
562 563 -3.318884048537343E-1
562 607 -4.925609358646767E-1
562 608 -5.506783851697465E-1
562 632 -5.083168668800662E-1
563 517 -6.566625317293066E-1
563 518 -6.764285027636381E-1
563 562 -3.318884048537343E-1
563 563 3.519616608473756
563 564 -6.333059772996579E-1
563 608 -6.696912921209731E-1
563 609 -5.516398997064456E-1
564 518 -5.073427780998353E-1
564 521 -5.855217784187612E-1
564 563 -6.333059772996579E-1
564 564 3.469376604776726
564 566 -5.851491937370739E-1
564 609 -6.107282165286201E-1
564 610 -5.473286606927781E-1
565 519 -3.9624276740559145E-1
565 520 -9.440530678572998E-1
565 524 -2.600911073345754E-1
565 565 3.670402138538555
565 588 -7.526551848056818E-1
565 589 -9.429977112852634E-1
565 611 -3.7436229985014263E-1
566 521 -5.635752143112334E-1
566 522 -5.811108588678369E-1
566 564 -5.851491937370739E-1
566 566 3.464718228853952
566 567 -5.805347739705098E-1
566 610 -5.967131828362653E-1
566 612 -5.576350051310335E-1
567 522 -5.738259322499935E-1
567 523 -5.780121811221669E-1
567 566 -5.805347739705098E-1
567 567 3.4641257297229107
567 568 -5.781287001129356E-1
567 612 -5.79439074301394E-1
567 613 -5.741850679659115E-1
568 523 -5.767861225020778E-1
568 531 -5.774165022020818E-1
568 567 -5.781287001129356E-1
568 568 3.46410219263191
568 575 -5.775347944094607E-1
568 613 -5.769549843910666E-1
568 614 -5.772810890142877E-1
569 524 -3.9484430756461303E-1
569 525 -7.472631051372347E-1
569 569 3.533855231398614
569 570 -5.26228062828944E-1
569 589 -7.830592573754946E-1
569 615 -6.373753283248116E-1
569 616 -4.4508517016751625E-1
570 525 -5.129755411012884E-1
570 526 -6.581905452011584E-1
570 569 -5.26228062828944E-1
570 570 3.5294150761050673
570 571 -6.474823828868013E-1
570 615 -7.847725468620352E-1
570 617 -3.9976599722483974E-1
571 526 -5.54817739185542E-1
571 527 -6.156130354260134E-1
571 570 -6.474823828868013E-1
571 571 3.4801989071898216
571 572 -5.944258187282485E-1
571 617 -4.8774581338364714E-1
571 618 -5.801141175795691E-1
572 527 -5.570419045735207E-1
572 528 -5.796811449610171E-1
572 552 -5.816401391802506E-1
572 571 -5.944258187282485E-1
572 572 3.4657480941405154
572 601 -5.505317799498209E-1
572 618 -6.024273067476571E-1
573 529 -2.4615118444194156E-1
573 541 -6.205999990922324E-1
573 573 1.702858360498
573 590 -5.894974005665274E-1
573 619 -2.4660977639729875E-1
574 530 -5.7735026918965E-1
574 548 -5.773502691895928E-1
574 549 -5.773502691896301E-1
574 574 3.464101615137755
574 597 -5.773502691896393E-1
574 598 -5.773502691896066E-1
574 620 -5.773502691896357E-1
575 531 -5.772420708001382E-1
575 550 -5.773502691896149E-1
575 568 -5.775347944094607E-1
575 575 3.464101643962176
575 599 -5.773502691896168E-1
575 614 -5.772920037167806E-1
575 621 -5.773322366565652E-1
576 532 -5.773502691896237E-1
576 533 -5.773502691896283E-1
576 553 -5.773502691896292E-1
576 576 3.4641016151377544
576 577 -5.773502691896255E-1
576 602 -5.773502691896251E-1
576 622 -5.773502691896226E-1
577 533 -5.77350269189624E-1
577 534 -5.773502691896301E-1
577 576 -5.773502691896255E-1
577 577 3.4641016151377544
577 578 -5.773502691896302E-1
577 622 -5.773502691896248E-1
577 623 -5.773502691896201E-1
578 534 -5.773502691896177E-1
578 535 -5.773502691896253E-1
578 577 -5.773502691896302E-1
578 578 3.4641016151377544
578 579 -5.773502691896383E-1
578 623 -5.773502691896295E-1
578 624 -5.773502691896133E-1
579 535 -5.773502691896065E-1
579 536 -5.773502691896266E-1
579 578 -5.773502691896383E-1
579 579 3.4641016151377553
579 580 -5.773502691896295E-1
579 624 -5.773502691896304E-1
579 625 -5.773502691896233E-1
580 536 -5.773502691896208E-1
580 537 -5.770257947535616E-1
580 579 -5.773502691896295E-1
580 580 3.464102294440529
580 581 -5.782108228172942E-1
580 625 -5.773502691896311E-1
580 626 -5.768148693007914E-1
581 537 -5.767190647692872E-1
581 551 -5.764268675166832E-1
581 580 -5.782108228172942E-1
581 581 3.4641069093187538
581 600 -5.79878006347067E-1
581 626 -5.773455504372947E-1
581 627 -5.755265974311277E-1
582 538 -5.94932910108769E-1
582 539 -5.979334585242997E-1
582 556 -5.519743249072155E-1
582 582 3.467068223172528
582 583 -6.031469421283346E-1
582 605 -5.789988366364507E-1
582 628 -5.40081750867458E-1
583 539 -3.875484519308196E-1
583 557 -8.596056351988055E-1
583 582 -6.031469421283346E-1
583 583 3.5383984486179014
583 585 -4.803976383685118E-1
583 628 -6.586970841632795E-1
583 629 -5.490026968281505E-1
584 540 -5.629297898309452E-1
584 558 -5.526452255732839E-1
584 584 3.483321518974461
584 585 -6.178489359518018E-1
584 586 -5.403694511994245E-1
584 606 -7.02071838263553E-1
584 630 -5.074562781554526E-1
585 540 -5.669994486644929E-1
585 557 -6.434953518287327E-1
585 583 -4.803976383685118E-1
585 584 -6.178489359518018E-1
585 585 3.505342376414406
585 629 -6.831619280668976E-1
585 630 -5.13439073533969E-1
586 558 -2.8662929940425885E-1
586 584 -5.403694511994245E-1
586 586 1.7002583991736329
586 606 -5.996987082064775E-1
586 631 -2.7356094036347195E-1
587 514 -6.258729894710338E-1
587 559 -3.1738667714533675E-1
587 561 -7.492958618711671E-1
587 587 1.9206526782763353
587 607 -2.2809714978879758E-1
588 519 -4.7309405196709375E-1
588 560 -3.655972022158818E-1
588 565 -7.526551848056818E-1
588 588 1.9177193676337345
588 611 -3.263729286450771E-1
589 524 -7.114179610576357E-1
589 565 -9.429977112852634E-1
589 569 -7.830592573754946E-1
589 589 3.718086509641612
589 611 -4.625252946014953E-1
589 616 -8.180862853217228E-1
590 541 -4.778351686931712E-1
590 573 -5.894974005665274E-1
590 590 3.4825107080422906
590 591 -7.046088550085912E-1
590 619 -6.353261888465473E-1
590 633 -4.929588620029119E-1
590 634 -5.822842329245415E-1
591 541 -5.893363970757677E-1
591 542 -4.984961570497082E-1
591 543 -6.132250435643073E-1
591 590 -7.046088550085912E-1
591 591 3.4980798188208344
591 592 -6.855276402727476E-1
591 634 -4.068857258497127E-1
592 543 -4.4992838101189064E-1
592 544 -5.892317975548117E-1
592 591 -6.855276402727476E-1
592 592 3.4926415561970177
592 593 -5.977993025490791E-1
592 634 -7.059972353605215E-1
592 635 -4.641571994479673E-1
593 544 -5.498335551542357E-1
593 545 -5.840372331421169E-1
593 592 -5.977993025490791E-1
593 593 3.465855200489399
593 594 -5.842441659544753E-1
593 635 -6.028919239874531E-1
593 636 -5.470490197020397E-1
594 545 -5.728380389374391E-1
594 546 -5.773502691896208E-1
594 593 -5.842441659544753E-1
594 594 3.4641465556380346
594 595 -5.773502691896304E-1
594 636 -5.750135431772379E-1
594 637 -5.773502691896313E-1
595 546 -5.773502691896221E-1
595 547 -5.773502691896326E-1
595 594 -5.773502691896304E-1
595 595 3.464101615137755
595 596 -5.773502691896206E-1
595 637 -5.773502691896297E-1
595 638 -5.773502691896191E-1
596 547 -5.77350269189628E-1
596 548 -5.773502691896393E-1
596 595 -5.773502691896206E-1
596 596 3.464101615137755
596 597 -5.773502691896037E-1
596 638 -5.773502691896355E-1
596 639 -5.773502691896277E-1
597 548 -5.773502691896404E-1
597 574 -5.773502691896393E-1
597 596 -5.773502691896037E-1
597 597 3.4641016151377544
597 620 -5.773502691895946E-1
597 639 -5.773502691896427E-1
597 640 -5.773502691896337E-1
598 549 -5.773502691896337E-1
598 550 -5.773502691896246E-1
598 574 -5.773502691896066E-1
598 598 3.4641016151377553
598 599 -5.773502691896242E-1
598 620 -5.773502691896426E-1
598 641 -5.773502691896228E-1
599 550 -5.773502691896326E-1
599 575 -5.773502691896168E-1
599 598 -5.773502691896242E-1
599 599 3.4641016151377544
599 621 -5.77350269189628E-1
599 641 -5.773502691896272E-1
599 642 -5.773502691896253E-1
600 551 -5.761424056035612E-1
600 552 -5.738336755891045E-1
600 581 -5.79878006347067E-1
600 600 3.4641553150356943
600 601 -5.859588211639013E-1
600 627 -5.753952252425989E-1
600 643 -5.729471810894616E-1
601 552 -5.771820961749623E-1
601 572 -5.505317799498209E-1
601 600 -5.859588211639013E-1
601 601 3.466174617697548
601 618 -6.306929054412505E-1
601 643 -5.60454254770278E-1
601 644 -5.613547601973349E-1
602 553 -5.773502691896258E-1
602 554 -5.77350269189629E-1
602 576 -5.773502691896251E-1
602 602 3.464101615137755
602 603 -5.773502691896211E-1
602 622 -5.773502691896321E-1
602 645 -5.773502691896216E-1
603 554 -5.739687466981587E-1
603 555 -5.826788469213502E-1
603 602 -5.773502691896211E-1
603 603 3.4641279144984574
603 604 -5.754295133100709E-1
603 645 -5.773502691896302E-1
603 646 -5.77350269189626E-1
604 555 -5.778224334087867E-1
604 556 -5.788089322226411E-1
604 603 -5.754295133100709E-1
604 604 3.4641116865103836
604 605 -5.773502691896208E-1
604 646 -5.773502691896322E-1
604 647 -5.77350269189632E-1
605 556 -5.773502691896348E-1
605 582 -5.789988366364507E-1
605 604 -5.773502691896208E-1
605 605 3.4641484536906364
605 628 -5.806852890516165E-1
605 647 -5.773502691896268E-1
605 648 -5.724135204336867E-1
606 584 -7.02071838263553E-1
606 586 -5.996987082064775E-1
606 606 3.5464508850054624
606 630 -3.626898253645882E-1
606 631 -5.268467356231787E-1
606 649 -5.055469388211862E-1
606 650 -8.495968387264786E-1
607 561 -8.3762712053928E-1
607 562 -4.925609358646767E-1
607 587 -2.2809714978879758E-1
607 607 1.9465424596748
607 632 -3.882572534820456E-1
608 562 -5.506783851697465E-1
608 563 -6.696912921209731E-1
608 608 3.492985076526911
608 609 -5.611576616209986E-1
608 632 -7.039691758982525E-1
608 651 -4.8743815015010394E-1
608 652 -5.200504115668368E-1
609 563 -5.516398997064456E-1
609 564 -6.107282165286201E-1
609 608 -5.611576616209986E-1
609 609 3.4693676713998203
609 610 -5.72387048128124E-1
609 652 -6.376191805474654E-1
609 653 -5.358356648681664E-1
610 564 -5.473286606927781E-1
610 566 -5.967131828362653E-1
610 609 -5.72387048128124E-1
610 610 3.467647940315783
610 612 -6.000376323679453E-1
610 653 -6.269600396707127E-1
610 654 -5.242213766199576E-1
611 565 -3.7436229985014263E-1
611 588 -3.263729286450771E-1
611 589 -4.625252946014953E-1
611 611 1.8209099983911248
611 616 -3.420713375802428E-1
611 655 -3.1557813771416693E-1
612 566 -5.576350051310335E-1
612 567 -5.79439074301394E-1
612 610 -6.000376323679453E-1
612 612 3.4647051888792175
612 613 -5.825901579881309E-1
612 654 -5.781861925291116E-1
612 656 -5.668171265616027E-1
613 567 -5.741850679659115E-1
613 568 -5.769549843910666E-1
613 612 -5.825901579881309E-1
613 613 3.464125619833686
613 614 -5.775449279469285E-1
613 656 -5.754259043754333E-1
613 657 -5.774245771662149E-1
614 568 -5.772810890142877E-1
614 575 -5.772920037167806E-1
614 613 -5.775449279469285E-1
614 614 3.4641016449815827
614 621 -5.773817788696682E-1
614 657 -5.77242656060703E-1
614 658 -5.773591893732152E-1
615 569 -6.373753283248116E-1
615 570 -7.847725468620352E-1
615 615 3.6670048393051475
615 616 -7.862996633795529E-1
615 617 -6.352893272050365E-1
615 659 -8.232679735337114E-1
616 569 -4.4508517016751625E-1
616 589 -8.180862853217228E-1
616 611 -3.420713375802428E-1
616 615 -7.862996633795529E-1
616 616 3.615924929871803
616 655 -8.450217176904788E-1
616 659 -3.7936075573228933E-1
617 570 -3.9976599722483974E-1
617 571 -4.8774581338364714E-1
617 615 -6.352893272050365E-1
617 617 3.4818261368127326
617 618 -5.818333998936277E-1
617 659 -3.0470637789003163E-1
617 660 -2.4312200905670786E-1
617 675 -8.293632121588417E-1
618 571 -5.801141175795691E-1
618 572 -6.024273067476571E-1
618 601 -6.306929054412505E-1
618 617 -5.818333998936277E-1
618 618 3.4821583357293493
618 644 -5.059732219493162E-1
618 660 -5.811173841179287E-1
619 573 -2.4660977639729875E-1
619 590 -6.353261888465473E-1
619 619 1.704985587469318
619 633 -5.937107547885629E-1
619 661 -2.293388674369089E-1
620 574 -5.773502691896357E-1
620 597 -5.773502691895946E-1
620 598 -5.773502691896426E-1
620 620 3.4641016151377544
620 640 -5.773502691896404E-1
620 641 -5.77350269189619E-1
620 662 -5.773502691896222E-1
621 575 -5.773322366565652E-1
621 599 -5.77350269189628E-1
621 614 -5.773817788696682E-1
621 621 3.46410161601555
621 642 -5.773502691896233E-1
621 658 -5.773367929204343E-1
621 663 -5.773502691896306E-1
622 576 -5.773502691896226E-1
622 577 -5.773502691896248E-1
622 602 -5.773502691896321E-1
622 622 3.4641016151377544
622 623 -5.773502691896277E-1
622 645 -5.773502691896266E-1
622 664 -5.773502691896203E-1
623 577 -5.773502691896201E-1
623 578 -5.773502691896295E-1
623 622 -5.773502691896277E-1
623 623 3.4641016151377544
623 624 -5.773502691896306E-1
623 664 -5.773502691896333E-1
623 665 -5.773502691896133E-1
624 578 -5.773502691896133E-1
624 579 -5.773502691896304E-1
624 623 -5.773502691896306E-1
624 624 3.4641016151377544
624 625 -5.773502691896286E-1
624 665 -5.773502691896313E-1
624 666 -5.773502691896203E-1
625 579 -5.773502691896233E-1
625 580 -5.773502691896311E-1
625 624 -5.773502691896286E-1
625 625 3.4641016162104057
625 626 -5.773638136828371E-1
625 666 -5.773293922732434E-1
625 667 -5.773576026854421E-1
626 580 -5.768148693007914E-1
626 581 -5.773455504372947E-1
626 625 -5.773638136828371E-1
626 626 3.4641045585118224
626 627 -5.792142814496007E-1
626 667 -5.771770644673754E-1
626 668 -5.761889791739231E-1
627 581 -5.755265974311277E-1
627 600 -5.753952252425989E-1
627 626 -5.792142814496007E-1
627 627 3.464143596808183
627 643 -5.838494638576368E-1
627 668 -5.780888809361797E-1
627 669 -5.720691478910395E-1
628 582 -5.40081750867458E-1
628 583 -6.586970841632795E-1
628 605 -5.806852890516165E-1
628 628 3.469999516909281
628 629 -5.118192749222286E-1
628 648 -5.889662451103115E-1
628 670 -5.897498727943871E-1
629 583 -5.490026968281505E-1
629 585 -6.831619280668976E-1
629 628 -5.118192749222286E-1
629 629 3.49293867171596
629 630 -4.5642674598495864E-1
629 670 -5.908689161056835E-1
629 671 -7.016591098080414E-1
630 584 -5.074562781554526E-1
630 585 -5.13439073533969E-1
630 606 -3.626898253645882E-1
630 629 -4.5642674598495864E-1
630 630 3.4042831401425833
630 650 -6.309401033859259E-1
630 671 -4.53120337572547E-1
630 673 -4.802107761451418E-1
631 586 -2.7356094036347195E-1
631 606 -5.268467356231787E-1
631 631 1.7040452846540295
631 649 -6.449676903583059E-1
631 672 -2.586699183090729E-1
632 562 -5.083168668800662E-1
632 607 -3.882572534820456E-1
632 608 -7.039691758982525E-1
632 632 1.9136589262981922
632 651 -3.1311563003782816E-1
633 590 -4.929588620029119E-1
633 619 -5.937107547885629E-1
633 633 3.478067786545729
633 634 -6.73951413174265E-1
633 661 -6.540843259571072E-1
633 676 -5.216608901946589E-1
633 677 -5.417015404282234E-1
634 590 -5.822842329245415E-1
634 591 -4.068857258497127E-1
634 592 -7.059972353605215E-1
634 633 -6.73951413174265E-1
634 634 3.4919505172204914
634 635 -6.199850929909304E-1
634 677 -5.028468169205204E-1
635 592 -4.641571994479673E-1
635 593 -6.028919239874531E-1
635 634 -6.199850929909304E-1
635 635 3.485606400259067
635 636 -6.12166082339805E-1
635 677 -7.066730635588703E-1
635 678 -4.7973303793404065E-1
636 593 -5.470490197020397E-1
636 594 -5.750135431772379E-1
636 635 -6.12166082339805E-1
636 636 3.466390152167102
636 637 -5.778965082523447E-1
636 678 -6.052542407871235E-1
636 679 -5.490107579085515E-1
637 594 -5.773502691896313E-1
637 595 -5.773502691896297E-1
637 636 -5.778965082523447E-1
637 637 3.4641049994206567
637 638 -5.773502691896251E-1
637 679 -5.755198705250315E-1
637 680 -5.786378130743945E-1
638 595 -5.773502691896191E-1
638 596 -5.773502691896355E-1
638 637 -5.773502691896251E-1
638 638 3.4641016151377544
638 639 -5.773502691896194E-1
638 680 -5.773502691896317E-1
638 681 -5.773502691896233E-1
639 596 -5.773502691896277E-1
639 597 -5.773502691896427E-1
639 638 -5.773502691896194E-1
639 639 3.4641016151377544
639 640 -5.773502691896129E-1
639 681 -5.773502691896327E-1
639 682 -5.773502691896191E-1
640 597 -5.773502691896337E-1
640 620 -5.773502691896404E-1
640 639 -5.773502691896129E-1
640 640 3.4641016151377544
640 662 -5.773502691896213E-1
640 682 -5.773502691896375E-1
640 683 -5.773502691896084E-1
641 598 -5.773502691896228E-1
641 599 -5.773502691896272E-1
641 620 -5.77350269189619E-1
641 641 3.4641016151377544
641 642 -5.773502691896278E-1
641 662 -5.773502691896364E-1
641 684 -5.773502691896215E-1
642 599 -5.773502691896253E-1
642 621 -5.773502691896233E-1
642 641 -5.773502691896278E-1
642 642 3.4641016151377553
642 663 -5.773502691896262E-1
642 684 -5.773502691896246E-1
642 685 -5.773502691896277E-1
643 600 -5.729471810894616E-1
643 601 -5.60454254770278E-1
643 627 -5.838494638576368E-1
643 643 3.4660634074096195
643 644 -6.205258882532985E-1
643 669 -5.841307962514535E-1
643 686 -5.441558231874912E-1
644 601 -5.613547601973349E-1
644 618 -5.059732219493162E-1
644 643 -6.205258882532985E-1
644 644 3.4994479234315663
644 660 -7.792283261322088E-1
644 686 -5.856341745376572E-1
644 687 -4.467315523617506E-1
645 602 -5.773502691896216E-1
645 603 -5.773502691896302E-1
645 622 -5.773502691896266E-1
645 645 3.4641016151377544
645 646 -5.773502691896235E-1
645 664 -5.773502691896237E-1
645 688 -5.773502691896286E-1
646 603 -5.77350269189626E-1
646 604 -5.773502691896322E-1
646 645 -5.773502691896235E-1
646 646 3.464101615137755
646 647 -5.773502691896213E-1
646 688 -5.773502691896266E-1
646 689 -5.773502691896251E-1
647 604 -5.77350269189632E-1
647 605 -5.773502691896268E-1
647 646 -5.773502691896213E-1
647 647 3.4641016151377544
647 648 -5.773502691896222E-1
647 689 -5.773502691896242E-1
647 690 -5.773502691896282E-1
648 605 -5.724135204336867E-1
648 628 -5.889662451103115E-1
648 647 -5.773502691896222E-1
648 648 3.4642195229398443
648 670 -5.707889498269694E-1
648 690 -5.773502691896266E-1
648 691 -5.77350269189628E-1
649 606 -5.055469388211862E-1
649 631 -6.449676903583059E-1
649 649 3.485981491708591
649 650 -6.290027972079113E-1
649 672 -5.485892889526451E-1
649 674 -5.765741735726575E-1
649 692 -5.813006027958847E-1
650 606 -8.495968387264786E-1
650 630 -6.309401033859259E-1
650 649 -6.290027972079113E-1
650 650 3.6608212909617643
650 673 -8.188652029910385E-1
650 674 -7.3241634865041E-1
651 608 -4.8743815015010394E-1
651 632 -3.1311563003782816E-1
651 651 1.9164427142722968
651 652 -7.746350024252961E-1
651 693 -3.4125393165906875E-1
652 608 -5.200504115668368E-1
652 609 -6.376191805474654E-1
652 651 -7.746350024252961E-1
652 652 3.5803148212110694
652 653 -4.723246528684517E-1
652 693 -2.814828210900068E-1
652 694 -8.942027527130123E-1
653 609 -5.358356648681664E-1
653 610 -6.269600396707127E-1
653 652 -4.723246528684517E-1
653 653 3.4999947363571953
653 654 -6.676279513135093E-1
653 694 -7.164474691565226E-1
653 695 -4.807989584798324E-1
654 610 -5.242213766199576E-1
654 612 -5.781861925291116E-1
654 653 -6.676279513135093E-1
654 654 3.476649315812532
654 656 -5.945390737222649E-1
654 695 -4.9115992432975214E-1
654 696 -6.209147972979361E-1
655 611 -3.1557813771416693E-1
655 616 -8.450217176904788E-1
655 655 1.9421405633585163
655 659 -4.12402864216703E-1
655 697 -3.691378437371675E-1
656 612 -5.668171265616027E-1
656 613 -5.754259043754333E-1
656 654 -5.945390737222649E-1
656 656 3.464329948483117
656 657 -5.773790322317749E-1
656 696 -5.728185424024259E-1
656 698 -5.773502691896154E-1
657 613 -5.774245771662149E-1
657 614 -5.77242656060703E-1
657 656 -5.773790322317749E-1
657 657 3.4641016294636913
657 658 -5.77354825625739E-1
657 698 -5.773502691896362E-1
657 699 -5.773502691896231E-1
658 614 -5.773591893732152E-1
658 621 -5.773367929204343E-1
658 657 -5.77354825625739E-1
658 658 3.4641016154882696
658 663 -5.773502691896252E-1
658 699 -5.773502691896311E-1
658 700 -5.773502691896251E-1
659 615 -8.232679735337114E-1
659 616 -3.7936075573228933E-1
659 617 -3.0470637789003163E-1
659 655 -4.12402864216703E-1
659 659 3.556384774534005
659 675 -7.613530934330159E-1
659 697 -7.161594029811553E-1
659 701 -1.5913430674709864E-1
660 617 -2.4312200905670786E-1
660 618 -5.811173841179287E-1
660 644 -7.792283261322088E-1
660 660 3.6126216754331186
660 675 -7.125956415150192E-1
660 687 -5.788506848315502E-1
660 702 -7.177076297797038E-1
661 619 -2.293388674369089E-1
661 633 -6.540843259571072E-1
661 661 1.7200200054761505
661 676 -6.646047243852289E-1
661 703 -1.719920876969055E-1
662 620 -5.773502691896222E-1
662 640 -5.773502691896213E-1
662 641 -5.773502691896364E-1
662 662 3.464101615137754
662 683 -5.773502691896363E-1
662 684 -5.773502691896313E-1
662 704 -5.773502691896071E-1
663 621 -5.773502691896306E-1
663 642 -5.773502691896262E-1
663 658 -5.773502691896252E-1
663 663 3.4641016151377544
663 685 -5.773502691896222E-1
663 700 -5.773502691896255E-1
663 705 -5.773502691896248E-1
664 622 -5.773502691896203E-1
664 623 -5.773502691896333E-1
664 645 -5.773502691896237E-1
664 664 3.464101615137755
664 665 -5.773502691896328E-1
664 688 -5.773502691896222E-1
664 706 -5.773502691896224E-1
665 623 -5.773502691896133E-1
665 624 -5.773502691896313E-1
665 664 -5.773502691896328E-1
665 665 3.4641016151377544
665 666 -5.773502691896244E-1
665 706 -5.773502691896268E-1
665 707 -5.773502691896257E-1
666 624 -5.773502691896203E-1
666 625 -5.773293922732434E-1
666 665 -5.773502691896244E-1
666 666 3.4641016178489386
666 667 -5.774078274106011E-1
666 707 -5.773467895914163E-1
666 708 -5.77317070194433E-1
667 625 -5.773576026854421E-1
667 626 -5.771770644673754E-1
667 666 -5.774078274106011E-1
667 667 3.4641017052890097
667 668 -5.776268398611208E-1
667 708 -5.773902407643636E-1
667 709 -5.771421301001063E-1
668 626 -5.761889791739231E-1
668 627 -5.780888809361797E-1
668 667 -5.776268398611208E-1
668 668 3.464104481009192
668 669 -5.78405144604725E-1
668 709 -5.776378975805626E-1
668 710 -5.761567388526805E-1
669 627 -5.720691478910395E-1
669 643 -5.841307962514535E-1
669 668 -5.78405144604725E-1
669 669 3.464153391120059
669 686 -5.733692861541713E-1
669 710 -5.790417468875355E-1
669 711 -5.771372693311341E-1
670 628 -5.897498727943871E-1
670 629 -5.908689161056835E-1
670 648 -5.707889498269694E-1
670 670 3.464602512499897
670 671 -5.614723759225322E-1
670 691 -5.773502691896197E-1
670 712 -5.74372128660705E-1
671 629 -7.016591098080414E-1
671 630 -4.53120337572547E-1
671 670 -5.614723759225322E-1
671 671 3.484967077950974
671 673 -6.146424168327458E-1
671 712 -5.859215053847282E-1
671 713 -5.681513324303794E-1
672 631 -2.586699183090729E-1
672 649 -5.485892889526451E-1
672 672 1.7007149847970702
672 692 -5.976280514453836E-1
672 714 -2.9582772608996866E-1
673 630 -4.802107761451418E-1
673 650 -8.188652029910385E-1
673 671 -6.146424168327458E-1
673 673 3.5299958463077203
673 674 -4.031274038336558E-1
673 713 -6.273919121349083E-1
673 715 -5.857581343702296E-1
674 649 -5.765741735726575E-1
674 650 -7.3241634865041E-1
674 673 -4.031274038336558E-1
674 674 3.5063023118292627
674 692 -5.41989819573006E-1
674 715 -6.353534010383877E-1
674 716 -6.168411651611452E-1
675 617 -8.293632121588417E-1
675 659 -7.613530934330159E-1
675 660 -7.125956415150192E-1
675 675 3.746236243341134
675 701 -7.035611360969143E-1
675 702 -7.393631601373433E-1
676 633 -5.216608901946589E-1
676 661 -6.646047243852289E-1
676 676 3.5189771637384974
676 677 -6.632199571575306E-1
676 703 -8.00635194827027E-1
676 717 -4.032725771695651E-1
676 718 -4.6558382000448684E-1
677 633 -5.417015404282234E-1
677 634 -5.028468169205204E-1
677 635 -7.066730635588703E-1
677 676 -6.632199571575306E-1
677 677 3.485705972189407
677 678 -5.810677324508673E-1
677 718 -4.9019686167339555E-1
678 635 -4.7973303793404065E-1
678 636 -6.052542407871235E-1
678 677 -5.810677324508673E-1
678 678 3.4880131195806046
678 679 -6.233856622076234E-1
678 718 -7.365994103732516E-1
678 719 -4.6197303582769766E-1
679 636 -5.490107579085515E-1
679 637 -5.755198705250315E-1
679 678 -6.233856622076234E-1
679 679 3.466243068164074
679 680 -5.789497007572373E-1
679 719 -5.776941924341726E-1
679 720 -5.616828843314579E-1
680 637 -5.786378130743945E-1
680 638 -5.773502691896317E-1
680 679 -5.789497007572373E-1
680 680 3.4642162179778326
680 681 -5.7735026918962E-1
680 720 -5.667186426744897E-1
680 721 -5.852095230924593E-1
681 638 -5.773502691896233E-1
681 639 -5.773502691896327E-1
681 680 -5.7735026918962E-1
681 681 3.464101615137755
681 682 -5.773502691896208E-1
681 721 -5.773502691896271E-1
681 722 -5.773502691896304E-1
682 639 -5.773502691896191E-1
682 640 -5.773502691896375E-1
682 681 -5.773502691896208E-1
682 682 3.4641016151377544
682 683 -5.773502691896274E-1
682 722 -5.773502691896352E-1
682 723 -5.773502691896149E-1
683 640 -5.773502691896084E-1
683 662 -5.773502691896363E-1
683 682 -5.773502691896274E-1
683 683 3.4641016151377544
683 704 -5.773502691896357E-1
683 723 -5.773502691896402E-1
683 724 -5.773502691896064E-1
684 641 -5.773502691896215E-1
684 642 -5.773502691896246E-1
684 662 -5.773502691896313E-1
684 684 3.4641016151377544
684 685 -5.773502691896255E-1
684 704 -5.773502691896292E-1
684 725 -5.773502691896226E-1
685 642 -5.773502691896277E-1
685 663 -5.773502691896222E-1
685 684 -5.773502691896255E-1
685 685 3.4641016151377544
685 705 -5.773502691896264E-1
685 725 -5.773502691896278E-1
685 726 -5.773502691896247E-1
686 643 -5.441558231874912E-1
686 644 -5.856341745376572E-1
686 669 -5.733692861541713E-1
686 686 3.46908972673168
686 687 -6.508316787923332E-1
686 711 -5.78053340071571E-1
686 727 -5.370454239884567E-1
687 644 -4.467315523617506E-1
687 660 -5.788506848315502E-1
687 686 -6.508316787923332E-1
687 687 3.5313808418801957
687 702 -7.535750632398022E-1
687 727 -6.462427010993184E-1
687 728 -4.5514916155544105E-1
688 645 -5.773502691896286E-1
688 646 -5.773502691896266E-1
688 664 -5.773502691896222E-1
688 688 3.4641016151377544
688 689 -5.773502691896204E-1
688 706 -5.773502691896287E-1
688 729 -5.773502691896282E-1
689 646 -5.773502691896251E-1
689 647 -5.773502691896242E-1
689 688 -5.773502691896204E-1
689 689 3.464101615137755
689 690 -5.773502691896258E-1
689 729 -5.77350269189626E-1
689 730 -5.773502691896331E-1
690 647 -5.773502691896282E-1
690 648 -5.773502691896266E-1
690 689 -5.773502691896258E-1
690 690 3.4641016151377535
690 691 -5.773502691896173E-1
690 730 -5.773502691896167E-1
690 731 -5.773502691896393E-1
691 648 -5.77350269189628E-1
691 670 -5.773502691896197E-1
691 690 -5.773502691896173E-1
691 691 3.464101615137755
691 712 -5.77350269189623E-1
691 731 -5.773502691896304E-1
691 732 -5.773502691896364E-1
692 649 -5.813006027958847E-1
692 672 -5.976280514453836E-1
692 674 -5.41989819573006E-1
692 692 3.479483825083393
692 714 -5.983632567214888E-1
692 716 -6.312174119178364E-1
692 733 -5.289846826297935E-1
693 651 -3.4125393165906875E-1
693 652 -2.814828210900068E-1
693 693 1.8301788947300373
693 694 -5.157003635747879E-1
693 734 -3.909582807115811E-1
693 755 -3.0078349769459256E-1
694 652 -8.942027527130123E-1
694 653 -7.164474691565226E-1
694 693 -5.157003635747879E-1
694 694 3.7215915380806583
694 695 -5.921521954155804E-1
694 734 -1.0030887572207552
695 653 -4.807989584798324E-1
695 654 -4.9115992432975214E-1
695 694 -5.921521954155804E-1
695 695 3.4016053727330884
695 696 -5.199625880986478E-1
695 734 -3.2354925000993795E-1
695 735 -4.3014440692950034E-1
695 756 -5.638380494698374E-1
696 654 -6.209147972979361E-1
696 656 -5.728185424024259E-1
696 695 -5.199625880986478E-1
696 696 3.469449493782004
696 698 -5.773502691896255E-1
696 735 -6.081724331490513E-1
696 736 -5.702308636443177E-1
697 655 -3.691378437371675E-1
697 659 -7.161594029811553E-1
697 697 1.9417887026263834
697 701 -4.7658803235227365E-1
697 737 -3.7990342355578677E-1
698 656 -5.773502691896154E-1
698 657 -5.773502691896362E-1
698 696 -5.773502691896255E-1
698 698 3.4641016151377544
698 699 -5.773502691896242E-1
698 736 -5.773502691896275E-1
698 738 -5.773502691896257E-1
699 657 -5.773502691896231E-1
699 658 -5.773502691896311E-1
699 698 -5.773502691896242E-1
699 699 3.464101615137755
699 700 -5.773502691896265E-1
699 738 -5.773502691896235E-1
699 739 -5.773502691896266E-1
700 658 -5.773502691896251E-1
700 663 -5.773502691896255E-1
700 699 -5.773502691896265E-1
700 700 3.4641016151377544
700 705 -5.773502691896291E-1
700 739 -5.773502691896217E-1
700 740 -5.773502691896266E-1
701 659 -1.5913430674709864E-1
701 675 -7.035611360969143E-1
701 697 -4.7658803235227365E-1
701 701 3.5668855059748306
701 702 -7.398753029469253E-1
701 728 -2.508013071736365E-1
701 737 -6.916671421495146E-1
701 757 -5.452582785084674E-1
702 660 -7.177076297797038E-1
702 675 -7.393631601373433E-1
702 687 -7.535750632398022E-1
702 701 -7.398753029469253E-1
702 702 3.672860321501875
702 728 -7.22339165398101E-1
703 661 -1.719920876969055E-1
703 676 -8.00635194827027E-1
703 703 1.746361595996337
703 717 -6.08923560455806E-1
703 741 -1.6481075301659837E-1
704 662 -5.773502691896071E-1
704 683 -5.773502691896357E-1
704 684 -5.773502691896292E-1
704 704 3.4641016151377544
704 724 -5.773502691896397E-1
704 725 -5.773502691896297E-1
704 742 -5.773502691896132E-1
705 663 -5.773502691896248E-1
705 685 -5.773502691896264E-1
705 700 -5.773502691896291E-1
705 705 3.464101615137755
705 726 -5.773502691896234E-1
705 740 -5.773502691896244E-1
705 743 -5.773502691896268E-1
706 664 -5.773502691896224E-1
706 665 -5.773502691896268E-1
706 688 -5.773502691896287E-1
706 706 3.464101615137755
706 707 -5.77350269189624E-1
706 729 -5.773502691896253E-1
706 744 -5.773502691896276E-1
707 665 -5.773502691896257E-1
707 666 -5.773467895914163E-1
707 706 -5.77350269189624E-1
707 707 3.4641016152157307
707 708 -5.773594857081523E-1
707 744 -5.773502691896224E-1
707 745 -5.7734453234729E-1
708 666 -5.77317070194433E-1
708 667 -5.773902407643636E-1
708 707 -5.773594857081523E-1
708 708 3.4641016172862535
708 709 -5.77327510598137E-1
708 745 -5.773582632713031E-1
708 746 -5.77349046749865E-1
709 667 -5.771421301001063E-1
709 668 -5.776378975805626E-1
709 708 -5.77327510598137E-1
709 709 3.4641016900245956
709 710 -5.77324348167656E-1
709 746 -5.773537488326929E-1
709 747 -5.773160547454406E-1
710 668 -5.761567388526805E-1
710 669 -5.790417468875355E-1
710 709 -5.77324348167656E-1
710 710 3.4641041898561316
710 711 -5.768391528885981E-1
710 747 -5.773965796000479E-1
710 748 -5.773456234596139E-1
711 669 -5.771372693311341E-1
711 686 -5.78053340071571E-1
711 710 -5.768391528885981E-1
711 711 3.4641028053970775
711 727 -5.77347511337106E-1
711 748 -5.773724270256744E-1
711 749 -5.773531047429933E-1
712 670 -5.74372128660705E-1
712 671 -5.859215053847282E-1
712 691 -5.77350269189623E-1
712 712 3.464170261699645
712 713 -5.718258200853341E-1
712 732 -5.773502691896228E-1
712 750 -5.773502691896321E-1
713 671 -5.681513324303794E-1
713 673 -6.273919121349083E-1
713 712 -5.718258200853341E-1
713 713 3.4662846284730024
713 715 -5.460045176598551E-1
713 750 -5.773502691896244E-1
713 751 -5.755607769729009E-1
714 672 -2.9582772608996866E-1
714 692 -5.983632567214888E-1
714 714 1.709624991885424
714 733 -4.792798412205679E-1
714 752 -3.361541678533986E-1
715 673 -5.857581343702296E-1
715 674 -6.353534010383877E-1
715 713 -5.460045176598551E-1
715 715 3.4679188651910806
715 716 -5.512110012139596E-1
715 751 -5.807239295309949E-1
715 753 -5.688678813776532E-1
716 674 -6.168411651611452E-1
716 692 -6.312174119178364E-1
716 715 -5.512110012139596E-1
716 716 3.486983215730005
716 733 -4.6065289423480504E-1
716 753 -5.72034116564115E-1
716 754 -6.550266266381441E-1
717 676 -4.032725771695651E-1
717 703 -6.08923560455806E-1
717 717 3.52921755184634
717 718 -7.086398154255353E-1
717 741 -7.570130880533554E-1
717 758 -5.275127906270856E-1
717 759 -5.238557201149926E-1
718 676 -4.6558382000448684E-1
718 677 -4.9019686167339555E-1
718 678 -7.365994103732516E-1
718 717 -7.086398154255353E-1
718 718 3.500745292315342
718 719 -6.217582977457051E-1
718 759 -4.779670870929673E-1
719 678 -4.6197303582769766E-1
719 679 -5.776941924341726E-1
719 718 -6.217582977457051E-1
719 719 3.476511000640719
719 720 -6.478497332889108E-1
719 759 -6.140466162819143E-1
719 760 -5.531891250623182E-1
720 679 -5.616828843314579E-1
720 680 -5.667186426744897E-1
720 719 -6.478497332889108E-1
720 720 3.471177517398087
720 721 -5.726732798757801E-1
720 760 -5.022601159055486E-1
720 761 -6.199928613218998E-1
721 680 -5.852095230924593E-1
721 681 -5.773502691896271E-1
721 720 -5.726732798757801E-1
721 721 3.4643707588181503
721 722 -5.773502691896086E-1
721 761 -5.630803823860869E-1
721 762 -5.88707035084588E-1
722 681 -5.773502691896304E-1
722 682 -5.773502691896352E-1
722 721 -5.773502691896086E-1
722 722 3.4641016151377544
722 723 -5.77350269189617E-1
722 762 -5.773502691896298E-1
722 763 -5.773502691896334E-1
723 682 -5.773502691896149E-1
723 683 -5.773502691896402E-1
723 722 -5.77350269189617E-1
723 723 3.4641016151377544
723 724 -5.773502691896286E-1
723 763 -5.77350269189627E-1
723 764 -5.773502691896271E-1
724 683 -5.773502691896064E-1
724 704 -5.773502691896397E-1
724 723 -5.773502691896286E-1
724 724 3.4641016151377544
724 742 -5.773502691896354E-1
724 764 -5.773502691896262E-1
724 765 -5.77350269189618E-1
725 684 -5.773502691896226E-1
725 685 -5.773502691896278E-1
725 704 -5.773502691896297E-1
725 725 3.4641016151377544
725 726 -5.77350269189631E-1
725 742 -5.773502691896241E-1
725 766 -5.773502691896191E-1
726 685 -5.773502691896247E-1
726 705 -5.773502691896234E-1
726 725 -5.77350269189631E-1
726 726 3.464101615137755
726 743 -5.773502691896244E-1
726 766 -5.773502691896277E-1
726 767 -5.773502691896233E-1
727 686 -5.370454239884567E-1
727 687 -6.462427010993184E-1
727 711 -5.77347511337106E-1
727 727 3.4853596451450604
727 728 -4.6911573359066827E-1
727 749 -5.599140754486782E-1
727 768 -6.956941996808329E-1
728 687 -4.5514916155544105E-1
728 701 -2.508013071736365E-1
728 702 -7.22339165398101E-1
728 727 -4.6911573359066827E-1
728 728 3.461714939561473
728 757 -7.186721702663169E-1
728 768 -4.6507913332119655E-1
728 783 -3.805582682561127E-1
729 688 -5.773502691896282E-1
729 689 -5.77350269189626E-1
729 706 -5.773502691896253E-1
729 729 3.4641016151377544
729 730 -5.773502691896167E-1
729 744 -5.773502691896274E-1
729 769 -5.773502691896307E-1
730 689 -5.773502691896331E-1
730 690 -5.773502691896167E-1
730 729 -5.773502691896167E-1
730 730 3.464101615137755
730 731 -5.77350269189635E-1
730 769 -5.773502691896115E-1
730 770 -5.773502691896415E-1
731 690 -5.773502691896393E-1
731 691 -5.773502691896304E-1
731 730 -5.77350269189635E-1
731 731 3.4641016151377535
731 732 -5.773502691896113E-1
731 770 -5.773502691896049E-1
731 771 -5.773502691896332E-1
732 691 -5.773502691896364E-1
732 712 -5.773502691896228E-1
732 731 -5.773502691896113E-1
732 732 3.4641016151377544
732 750 -5.77350269189617E-1
732 771 -5.773502691896387E-1
732 772 -5.773502691896284E-1
733 692 -5.289846826297935E-1
733 714 -4.792798412205679E-1
733 716 -4.6065289423480504E-1
733 733 3.399782532873174
733 752 -5.05333331942307E-1
733 754 -5.095641138247035E-1
733 773 -5.693373767775642E-1
733 774 -3.466302922434331E-1
734 693 -3.909582807115811E-1
734 694 -1.0030887572207552
734 695 -3.2354925000993795E-1
734 734 3.687295379823361
734 755 -7.528670285774588E-1
734 756 -9.314843078352817E-1
734 775 -2.8534775546834645E-1
735 695 -4.3014440692950034E-1
735 696 -6.081724331490513E-1
735 735 3.521316774255887
735 736 -6.069695444546774E-1
735 756 -8.289626229620419E-1
735 776 -5.398224451553868E-1
735 777 -5.072453216052288E-1
736 696 -5.702308636443177E-1
736 698 -5.773502691896275E-1
736 735 -6.069695444546774E-1
736 736 3.4648178051721605
736 738 -5.773502691896228E-1
736 776 -5.580305216637163E-1
736 778 -5.748863370301989E-1
737 697 -3.7990342355578677E-1
737 701 -6.916671421495146E-1
737 737 1.9088328185941346
737 757 -5.612256707906453E-1
737 779 -2.760365820981878E-1
738 698 -5.773502691896257E-1
738 699 -5.773502691896235E-1
738 736 -5.773502691896228E-1
738 738 3.464101637384598
738 739 -5.772947102597824E-1
738 778 -5.774490467957039E-1
738 780 -5.773070727602392E-1
739 699 -5.773502691896266E-1
739 700 -5.773502691896217E-1
739 738 -5.772947102597824E-1
739 739 3.4641016617579474
739 740 -5.77350269189628E-1
739 780 -5.775602323347535E-1
739 781 -5.771959115945351E-1
740 700 -5.773502691896266E-1
740 705 -5.773502691896244E-1
740 739 -5.77350269189628E-1
740 740 3.4641016151377544
740 743 -5.77350269189626E-1
740 781 -5.773502691896211E-1
740 782 -5.773502691896286E-1
741 703 -1.6481075301659837E-1
741 717 -7.570130880533554E-1
741 741 1.8122396101005116
741 758 -8.396226020023662E-1
741 784 -5.07931670281917E-2
742 704 -5.773502691896132E-1
742 724 -5.773502691896354E-1
742 725 -5.773502691896241E-1
742 742 3.4641016151377544
742 765 -5.773502691896248E-1
742 766 -5.773502691896295E-1
742 785 -5.773502691896275E-1
743 705 -5.773502691896268E-1
743 726 -5.773502691896244E-1
743 740 -5.77350269189626E-1
743 743 3.464101615137755
743 767 -5.773502691896264E-1
743 782 -5.773502691896237E-1
743 786 -5.773502691896274E-1
744 706 -5.773502691896276E-1
744 707 -5.773502691896224E-1
744 729 -5.773502691896274E-1
744 744 3.464101615137755
744 745 -5.77350269189628E-1
744 769 -5.77350269189628E-1
744 787 -5.773502691896218E-1
745 707 -5.7734453234729E-1
745 708 -5.773582632713031E-1
745 744 -5.77350269189628E-1
745 745 3.4641016152035835
745 746 -5.773480120161141E-1
745 787 -5.773502691896255E-1
745 788 -5.773502691896228E-1
746 708 -5.77349046749865E-1
746 709 -5.773537488326929E-1
746 745 -5.773480120161141E-1
746 746 3.464101615167551
746 747 -5.7735026918963E-1
746 788 -5.773502691896254E-1
746 789 -5.773502691896234E-1
747 709 -5.773160547454406E-1
747 710 -5.773965796000479E-1
747 746 -5.7735026918963E-1
747 747 3.4641016177523
747 748 -5.773247286365266E-1
747 789 -5.773440630986018E-1
747 790 -5.773699224820528E-1
748 710 -5.773456234596139E-1
748 711 -5.773724270256744E-1
748 747 -5.773247286365266E-1
748 748 3.4641016165778895
748 749 -5.773358584914985E-1
748 790 -5.773583719946613E-1
748 791 -5.773646069699145E-1
749 711 -5.773531047429933E-1
749 727 -5.599140754486782E-1
749 748 -5.773358584914985E-1
749 749 3.464643097083472
749 768 -5.979580999785006E-1
749 791 -5.773678489603051E-1
749 792 -5.747141094614965E-1
750 712 -5.773502691896321E-1
750 713 -5.773502691896244E-1
750 732 -5.77350269189617E-1
750 750 3.4641016722778066
750 751 -5.77477558692828E-1
750 772 -5.772207034801335E-1
750 793 -5.773526025359713E-1
751 713 -5.755607769729009E-1
751 715 -5.807239295309949E-1
751 750 -5.77477558692828E-1
751 751 3.4641112675090064
751 753 -5.771398467487865E-1
751 793 -5.761902621895824E-1
751 794 -5.770188933739137E-1
752 714 -3.361541678533986E-1
752 733 -5.05333331942307E-1
752 752 1.7922340059346942
752 773 -8.853548597264784E-1
752 795 -6.539164641251E-2
753 715 -5.688678813776532E-1
753 716 -5.72034116564115E-1
753 751 -5.771398467487865E-1
753 753 3.4645768528880936
753 754 -6.059458716845634E-1
753 794 -5.716175492402937E-1
753 796 -5.68971587272682E-1
754 716 -6.550266266381441E-1
754 733 -5.095641138247035E-1
754 753 -6.059458716845634E-1
754 754 3.488241453180882
754 774 -6.701070552694508E-1
754 796 -5.534473772751385E-1
754 797 -4.94150408488882E-1
755 693 -3.0078349769459256E-1
755 734 -7.528670285774588E-1
755 755 1.9079718088344904
755 775 -5.525320381379989E-1
755 799 -3.017892444244399E-1
756 695 -5.638380494698374E-1
756 734 -9.314843078352817E-1
756 735 -8.289626229620419E-1
756 756 3.67902464775794
756 775 -6.78338641870445E-1
756 777 -6.764010256203334E-1
757 701 -5.452582785084674E-1
757 728 -7.186721702663169E-1
757 737 -5.612256707906453E-1
757 757 3.520473916166849
757 779 -6.902523097065183E-1
757 783 -6.842270014535392E-1
757 800 -3.2083848544136195E-1
758 717 -5.275127906270856E-1
758 741 -8.396226020023662E-1
758 758 3.7130033449220097
758 759 -8.34829899177412E-1
758 784 -9.272243369152502E-1
758 801 -5.838137161998955E-1
759 717 -5.238557201149926E-1
759 718 -4.779670870929673E-1
759 719 -6.140466162819143E-1
759 758 -8.34829899177412E-1
759 759 3.551573214800049
759 760 -7.371335794502292E-1
759 801 -3.637403126825336E-1
760 719 -5.531891250623182E-1
760 720 -5.022601159055486E-1
760 759 -7.371335794502292E-1
760 760 3.495565804042818
760 761 -5.375589469142761E-1
760 801 -5.002531427224634E-1
760 802 -6.651708939879829E-1
761 720 -6.199928613218998E-1
761 721 -5.630803823860869E-1
761 760 -5.375589469142761E-1
761 761 3.466652528259135
761 762 -5.620967858857637E-1
761 802 -5.90069517512458E-1
761 803 -5.938540342386509E-1
762 721 -5.88707035084588E-1
762 722 -5.773502691896298E-1
762 761 -5.620967858857637E-1
762 762 3.464352650753101
762 763 -5.773502691896228E-1
762 803 -5.814980222138713E-1
762 804 -5.773502691896253E-1
763 722 -5.773502691896334E-1
763 723 -5.77350269189627E-1
763 762 -5.773502691896228E-1
763 763 3.4641016151377544
763 764 -5.773502691896233E-1
763 804 -5.773502691896224E-1
763 805 -5.77350269189626E-1
764 723 -5.773502691896271E-1
764 724 -5.773502691896262E-1
764 763 -5.773502691896233E-1
764 764 3.4641016151377544
764 765 -5.773502691896318E-1
764 805 -5.773502691896235E-1
764 806 -5.773502691896228E-1
765 724 -5.77350269189618E-1
765 742 -5.773502691896248E-1
765 764 -5.773502691896318E-1
765 765 3.4641016151377544
765 785 -5.773502691896262E-1
765 806 -5.77350269189626E-1
765 807 -5.773502691896275E-1
766 725 -5.773502691896191E-1
766 726 -5.773502691896277E-1
766 742 -5.773502691896295E-1
766 766 3.4641016151377544
766 767 -5.773502691896318E-1
766 785 -5.773502691896253E-1
766 808 -5.77350269189621E-1
767 726 -5.773502691896233E-1
767 743 -5.773502691896264E-1
767 766 -5.773502691896318E-1
767 767 3.4641016151377544
767 786 -5.773502691896248E-1
767 808 -5.773502691896212E-1
767 809 -5.773502691896268E-1
768 727 -6.956941996808329E-1
768 728 -4.6507913332119655E-1
768 749 -5.979580999785006E-1
768 768 3.506806912552111
768 783 -7.530724488900673E-1
768 792 -5.329985497673351E-1
768 810 -4.6200448091417834E-1
769 729 -5.773502691896307E-1
769 730 -5.773502691896115E-1
769 744 -5.77350269189628E-1
769 769 3.464101615137755
769 770 -5.773502691896293E-1
769 787 -5.773502691896286E-1
769 811 -5.773502691896266E-1
770 730 -5.773502691896415E-1
770 731 -5.773502691896049E-1
770 769 -5.773502691896293E-1
770 770 3.4641016151377544
770 771 -5.773502691896172E-1
770 811 -5.773502691896288E-1
770 812 -5.773502691896324E-1
771 731 -5.773502691896332E-1
771 732 -5.773502691896387E-1
771 770 -5.773502691896172E-1
771 771 3.4641016151377544
771 772 -5.773502689863342E-1
771 812 -5.773502690879916E-1
771 813 -5.773502694945394E-1
772 732 -5.773502691896284E-1
772 750 -5.772207034801335E-1
772 771 -5.773502689863342E-1
772 772 3.4641017552825693
772 793 -5.777580577564796E-1
772 813 -5.773286670462698E-1
772 814 -5.77093788823724E-1
773 733 -5.693373767775642E-1
773 752 -8.853548597264784E-1
773 773 3.7726380124029566
773 774 -9.462912949630202E-1
773 795 -9.869164992206905E-1
773 798 -3.847379817152036E-1
774 733 -3.466302922434331E-1
774 754 -6.701070552694508E-1
774 773 -9.462912949630202E-1
774 774 3.5801435514383755
774 797 -6.245166072048715E-1
774 798 -4.524040835979248E-1
774 815 -5.401942181596755E-1
775 734 -2.8534775546834645E-1
775 755 -5.525320381379989E-1
775 756 -6.78338641870445E-1
775 775 3.4506942149659316
775 777 -5.289373541261668E-1
775 799 -6.883225182508743E-1
775 816 -3.056427574181719E-1
775 817 -4.115731496939282E-1
776 735 -5.398224451553868E-1
776 736 -5.580305216637163E-1
776 776 3.469679553850781
776 777 -6.577994829475933E-1
776 778 -5.852608420202459E-1
776 818 -5.691000361574139E-1
776 819 -5.596662259064249E-1
777 735 -5.072453216052288E-1
777 756 -6.764010256203334E-1
777 775 -5.289373541261668E-1
777 776 -6.577994829475933E-1
777 777 3.5051616695870416
777 817 -6.754836622656649E-1
777 819 -4.5929482302205404E-1
778 736 -5.748863370301989E-1
778 738 -5.774490467957039E-1
778 776 -5.852608420202459E-1
778 778 3.464154275147538
778 780 -5.767644914931165E-1
778 818 -5.729627100074395E-1
778 820 -5.768308478008336E-1
779 737 -2.760365820981878E-1
779 757 -6.902523097065183E-1
779 779 1.9245172014693188
779 800 -7.689874269368295E-1
779 821 -1.892408827277831E-1
780 738 -5.773070727602392E-1
780 739 -5.775602323347535E-1
780 778 -5.767644914931165E-1
780 780 3.4641031080458187
780 781 -5.77538588420216E-1
780 820 -5.785159803033504E-1
780 822 -5.764167427341433E-1
781 739 -5.771959115945351E-1
781 740 -5.773502691896211E-1
781 780 -5.77538588420216E-1
781 781 3.464101688623782
781 782 -5.773502691896252E-1
781 822 -5.774964667510547E-1
781 823 -5.7717018347873E-1
782 740 -5.773502691896286E-1
782 743 -5.773502691896237E-1
782 781 -5.773502691896252E-1
782 782 3.464101615137755
782 786 -5.773502691896255E-1
782 823 -5.773502691896252E-1
782 824 -5.773502691896266E-1
783 728 -3.805582682561127E-1
783 757 -6.842270014535392E-1
783 768 -7.530724488900673E-1
783 783 3.547156328295131
783 800 -7.332524470102484E-1
783 810 -6.393755073503351E-1
783 825 -3.566706553348281E-1
784 741 -5.07931670281917E-2
784 758 -9.272243369152502E-1
784 784 1.8132131311439483
784 801 -4.880278889526157E-1
784 826 -3.4716773824789077E-1
785 742 -5.773502691896275E-1
785 765 -5.773502691896262E-1
785 766 -5.773502691896253E-1
785 785 3.464101615137755
785 807 -5.773502691896184E-1
785 808 -5.773502691896326E-1
785 827 -5.773502691896243E-1
786 743 -5.773502691896274E-1
786 767 -5.773502691896248E-1
786 782 -5.773502691896255E-1
786 786 3.4641016151377553
786 809 -5.773502691896248E-1
786 824 -5.773502691896256E-1
786 828 -5.773502691896266E-1
787 744 -5.773502691896218E-1
787 745 -5.773502691896255E-1
787 769 -5.773502691896286E-1
787 787 3.4641016151377553
787 788 -5.773502691896298E-1
787 811 -5.773502691896251E-1
787 829 -5.77350269189624E-1
788 745 -5.773502691896228E-1
788 746 -5.773502691896254E-1
788 787 -5.773502691896298E-1
788 788 3.4641016151603092
788 789 -5.773479898197521E-1
788 829 -5.773474716360361E-1
788 830 -5.773553461356427E-1
789 746 -5.773502691896234E-1
789 747 -5.773440630986018E-1
789 788 -5.773479898197521E-1
789 789 3.464101616072057
789 790 -5.773365930927133E-1
789 830 -5.77335245008112E-1
789 831 -5.773874558632542E-1
790 747 -5.773699224820528E-1
790 748 -5.773583719946613E-1
790 789 -5.773365930927133E-1
790 790 3.4641016195392758
790 791 -5.773175866718645E-1
790 831 -5.77297756069272E-1
790 832 -5.774213892287121E-1
791 748 -5.773646069699145E-1
791 749 -5.773678489603051E-1
791 790 -5.773175866718645E-1
791 791 3.4641016172161803
791 792 -5.773453727951021E-1
791 832 -5.773169054635052E-1
791 833 -5.773892963554887E-1
792 749 -5.747141094614965E-1
792 768 -5.329985497673351E-1
792 791 -5.773453727951021E-1
792 792 3.4734617662023264
792 810 -6.90558880356744E-1
792 833 -5.756930764406416E-1
792 834 -5.22151777381007E-1
793 750 -5.773526025359713E-1
793 751 -5.761902621895824E-1
793 772 -5.777580577564796E-1
793 793 3.464106244815516
793 794 -5.792862328501155E-1
793 814 -5.776704391921476E-1
793 835 -5.758486502912193E-1
794 751 -5.770188933739137E-1
794 753 -5.716175492402937E-1
794 793 -5.792862328501155E-1
794 794 3.4642373250306324
794 796 -5.878657537224101E-1
794 835 -5.797882074426536E-1
794 836 -5.686606884012463E-1
795 752 -6.539164641251E-2
795 773 -9.869164992206905E-1
795 795 1.813353712252887
795 798 -5.067255118597251E-1
795 837 -2.5432005475996156E-1
796 753 -5.68971587272682E-1
796 754 -5.534473772751385E-1
796 794 -5.878657537224101E-1
796 796 3.4676340145224955
796 797 -6.391789678741053E-1
796 836 -5.87376660857136E-1
796 838 -5.307936675210236E-1
797 754 -4.94150408488882E-1
797 774 -6.245166072048715E-1
797 796 -6.391789678741053E-1
797 797 3.5377837443053624
797 815 -8.213870299403221E-1
797 838 -6.184158823215928E-1
797 839 -3.401348484755882E-1
798 773 -3.847379817152036E-1
798 774 -4.524040835979248E-1
798 795 -5.067255118597251E-1
798 798 3.5493347716750816
798 815 -9.550723659748661E-1
798 837 -5.622999313361359E-1
798 840 -9.189259719058995E-2
798 857 -5.96202300000636E-1
799 755 -3.017892444244399E-1
799 775 -6.883225182508743E-1
799 799 1.9123152357391877
799 816 -6.726922763664223E-1
799 841 -2.495111966974513E-1
800 757 -3.2083848544136195E-1
800 779 -7.689874269368295E-1
800 783 -7.332524470102484E-1
800 800 3.675612177980227
800 821 -8.215667978249841E-1
800 825 -8.835479439362558E-1
800 842 -1.474190768305471E-1
801 758 -5.838137161998955E-1
801 759 -3.637403126825336E-1
801 760 -5.002531427224634E-1
801 784 -4.880278889526157E-1
801 801 3.404756751206117
801 802 -4.438811398948888E-1
801 826 -4.638799865344621E-1
801 843 -5.611605642192582E-1
802 760 -6.651708939879829E-1
802 761 -5.90069517512458E-1
802 801 -4.438811398948888E-1
802 802 3.486639657954422
802 803 -5.55993524957493E-1
802 843 -6.141889820239879E-1
802 844 -6.173355995776113E-1
803 761 -5.938540342386509E-1
803 762 -5.814980222138713E-1
803 802 -5.55993524957493E-1
803 803 3.465733995373017
803 804 -5.508495192357548E-1
803 844 -5.722955857247511E-1
803 845 -6.112433090024962E-1
804 762 -5.773502691896253E-1
804 763 -5.773502691896224E-1
804 803 -5.508495192357548E-1
804 804 3.4654718557336475
804 805 -5.729770170957227E-1
804 845 -6.155998883714366E-1
804 846 -5.713448926514856E-1
805 763 -5.77350269189626E-1
805 764 -5.773502691896235E-1
805 804 -5.729770170957227E-1
805 805 3.464143053497689
805 806 -5.773502691896268E-1
805 846 -5.839308665104516E-1
805 847 -5.751843623226385E-1
806 764 -5.773502691896228E-1
806 765 -5.77350269189626E-1
806 805 -5.773502691896268E-1
806 806 3.4641016151377544
806 807 -5.773502691896264E-1
806 847 -5.773502691896274E-1
806 848 -5.773502691896252E-1
807 765 -5.773502691896275E-1
807 785 -5.773502691896184E-1
807 806 -5.773502691896264E-1
807 807 3.4641016151377544
807 827 -5.773502691896231E-1
807 848 -5.773502691896281E-1
807 849 -5.773502691896311E-1
808 766 -5.77350269189621E-1
808 767 -5.773502691896212E-1
808 785 -5.773502691896326E-1
808 808 3.4641016151377544
808 809 -5.773502691896266E-1
808 827 -5.773502691896302E-1
808 850 -5.773502691896231E-1
809 767 -5.773502691896268E-1
809 786 -5.773502691896248E-1
809 808 -5.773502691896266E-1
809 809 3.4641016151377535
809 828 -5.773502691896273E-1
809 850 -5.773502691896311E-1
809 851 -5.773502691896174E-1
810 768 -4.6200448091417834E-1
810 783 -6.393755073503351E-1
810 792 -6.90558880356744E-1
810 810 3.554685768212146
810 825 -8.392908535882249E-1
810 834 -6.21640814197139E-1
810 852 -3.0181523180552466E-1
811 769 -5.773502691896266E-1
811 770 -5.773502691896288E-1
811 787 -5.773502691896251E-1
811 811 3.4641016151377544
811 812 -5.773502691896247E-1
811 829 -5.773502691896284E-1
811 853 -5.773502691896204E-1
812 770 -5.773502691896324E-1
812 771 -5.773502690879916E-1
812 811 -5.773502691896247E-1
812 812 3.4641016151377544
812 813 -5.773502691896053E-1
812 853 -5.773502691896379E-1
812 854 -5.773502692912622E-1
813 771 -5.773502694945394E-1
813 772 -5.773286670462698E-1
813 812 -5.773502691896053E-1
813 813 3.4641016191203873
813 814 -5.774146839238713E-1
813 854 -5.773502682748886E-1
813 855 -5.773074611912126E-1
814 772 -5.77093788823724E-1
814 793 -5.776704391921476E-1
814 813 -5.774146839238713E-1
814 814 3.4641017432759718
814 835 -5.771586738720715E-1
814 855 -5.774142867112337E-1
814 856 -5.773498707529237E-1
815 774 -5.401942181596755E-1
815 797 -8.213870299403221E-1
815 798 -9.550723659748661E-1
815 815 3.7205564727030236
815 839 -8.202405576695421E-1
815 840 -5.836623009586179E-1
816 775 -3.056427574181719E-1
816 799 -6.726922763664223E-1
816 816 3.5951466168917348
816 817 -9.090175969426149E-1
816 841 -7.910707155244121E-1
816 858 -3.917126131936619E-1
816 859 -5.25010657446452E-1
817 775 -4.115731496939282E-1
817 777 -6.754836622656649E-1
817 816 -9.090175969426149E-1
817 817 3.583181240250093
817 819 -7.035941401457829E-1
817 859 -3.577554643020524E-1
817 860 -5.257572269000493E-1
818 776 -5.691000361574139E-1
818 778 -5.729627100074395E-1
818 818 3.46563622107119
818 819 -5.822304742095923E-1
818 820 -5.746729490876705E-1
818 861 -5.483917596012612E-1
818 862 -6.182782920078127E-1
819 776 -5.596662259064249E-1
819 777 -4.5929482302205404E-1
819 817 -7.035941401457829E-1
819 818 -5.822304742095923E-1
819 819 3.550209892160227
819 860 -8.731068312456882E-1
819 862 -3.723173976306847E-1
820 778 -5.768308478008336E-1
820 780 -5.785159803033504E-1
820 818 -5.746729490876705E-1
820 820 3.464140815432714
820 822 -5.780145365952369E-1
820 861 -5.835837452731587E-1
820 863 -5.725227563724635E-1
821 779 -1.892408827277831E-1
821 800 -8.215667978249841E-1
821 821 1.9373585822961097
821 842 -6.116397606921407E-1
821 864 -3.1491114105120166E-1
822 780 -5.764167427341433E-1
822 781 -5.774964667510547E-1
822 820 -5.780145365952369E-1
822 822 3.464104320726747
822 823 -5.776456370544102E-1
822 863 -5.7848000324219E-1
822 865 -5.760509343497117E-1
823 781 -5.7717018347873E-1
823 782 -5.773502691896252E-1
823 822 -5.776456370544102E-1
823 823 3.464101694315345
823 824 -5.773502691896224E-1
823 865 -5.772350662133299E-1
823 866 -5.773502691896273E-1
824 782 -5.773502691896266E-1
824 786 -5.773502691896256E-1
824 823 -5.773502691896224E-1
824 824 3.4641016151377553
824 828 -5.773502691896274E-1
824 866 -5.773502691896245E-1
824 867 -5.773502691896284E-1
825 783 -3.566706553348281E-1
825 800 -8.835479439362558E-1
825 810 -8.392908535882249E-1
825 825 3.765747479736279
825 842 -7.008493124604449E-1
825 852 -9.853887144165252E-1
826 784 -3.4716773824789077E-1
826 801 -4.638799865344621E-1
826 826 1.7125916336588567
826 843 -5.78241396172869E-1
826 868 -3.2330251270363497E-1
827 785 -5.773502691896243E-1
827 807 -5.773502691896231E-1
827 808 -5.773502691896302E-1
827 827 3.4641016151377544
827 849 -5.773502691896328E-1
827 850 -5.773502691896202E-1
827 869 -5.773502691896244E-1
828 786 -5.773502691896266E-1
828 809 -5.773502691896273E-1
828 824 -5.773502691896274E-1
828 828 3.4641016151377544
828 851 -5.773502691896231E-1
828 867 -5.773502691896145E-1
828 870 -5.773502691896357E-1
829 787 -5.77350269189624E-1
829 788 -5.773474716360361E-1
829 811 -5.773502691896284E-1
829 829 3.464101615151775
829 830 -5.77353584925349E-1
829 853 -5.773502691896253E-1
829 871 -5.773497510215123E-1
830 788 -5.773553461356427E-1
830 789 -5.77335245008112E-1
830 829 -5.77353584925349E-1
830 830 3.464101615819067
830 831 -5.773628126718464E-1
830 871 -5.77331651566038E-1
830 872 -5.773629755120792E-1
831 789 -5.773874558632542E-1
831 790 -5.77297756069272E-1
831 830 -5.773628126718464E-1
831 831 3.4641016213923708
831 832 -5.773756470485882E-1
831 872 -5.7727777813621E-1
831 873 -5.774001716031998E-1
832 790 -5.774213892287121E-1
832 791 -5.773169054635052E-1
832 831 -5.773756470485882E-1
832 832 3.464101644185696
832 833 -5.773185862623463E-1
832 873 -5.771746401929423E-1
832 874 -5.774944759896024E-1
833 791 -5.773892963554887E-1
833 792 -5.756930764406416E-1
833 832 -5.773185862623463E-1
833 833 3.4641244979377728
833 834 -5.825801722276539E-1
833 874 -5.77077135189459E-1
833 875 -5.740662314621829E-1
834 792 -5.22151777381007E-1
834 810 -6.21640814197139E-1
834 833 -5.825801722276539E-1
834 834 3.4687245746793796
834 852 -6.113909007310039E-1
834 875 -5.784732807421183E-1
834 876 -5.524876294004568E-1
835 793 -5.758486502912193E-1
835 794 -5.797882074426536E-1
835 814 -5.771586738720715E-1
835 835 3.4641066338779067
835 836 -5.765889543248204E-1
835 856 -5.773718763079908E-1
835 877 -5.773502716391512E-1
836 794 -5.686606884012463E-1
836 796 -5.87376660857136E-1
836 835 -5.765889543248204E-1
836 836 3.4642514842343735
836 838 -5.839739585041471E-1
836 877 -5.768102139368365E-1
836 878 -5.708410082101878E-1
837 795 -2.5432005475996156E-1
837 798 -5.622999313361359E-1
837 837 1.7729738708505103
837 857 -8.71230373414468E-1
837 879 -8.512351133994478E-2
838 796 -5.307936675210236E-1
838 797 -6.184158823215928E-1
838 836 -5.839739585041471E-1
838 838 3.4678515804800254
838 839 -6.102821841475801E-1
838 878 -5.855296829432249E-1
838 880 -5.388562050424565E-1
839 797 -3.401348484755882E-1
839 815 -8.202405576695421E-1
839 838 -6.102821841475801E-1
839 839 3.52904126109914
839 840 -6.111990826670046E-1
839 880 -6.281410323876775E-1
839 881 -5.190435557517469E-1
840 798 -9.189259719058995E-2
840 815 -5.836623009586179E-1
840 839 -6.111990826670046E-1
840 840 3.54151459938394
840 857 -9.021703271001955E-1
840 881 -5.54239502645518E-1
840 882 -4.771025129997294E-1
840 899 -3.2124827582228477E-1
841 799 -2.495111966974513E-1
841 816 -7.910707155244121E-1
841 841 1.9218318404722385
841 858 -5.345738719639628E-1
841 883 -3.4667605628641246E-1
842 800 -1.474190768305471E-1
842 821 -6.116397606921407E-1
842 825 -7.008493124604449E-1
842 842 3.556080931277852
842 852 -4.969494000770182E-1
842 864 -7.354611006947653E-1
842 884 -1.9070642879576027E-1
842 885 -6.730558517271756E-1
843 801 -5.611605642192582E-1
843 802 -6.141889820239879E-1
843 826 -5.78241396172869E-1
843 843 3.4784350983234806
843 844 -5.729326918099802E-1
843 868 -5.557862532641757E-1
843 886 -5.961252108332095E-1
844 802 -6.173355995776113E-1
844 803 -5.722955857247511E-1
844 843 -5.729326918099802E-1
844 844 3.5038350206345865
844 845 -4.145486784510869E-1
844 886 -5.792255359159411E-1
844 887 -7.474969291552158E-1
845 803 -6.112433090024962E-1
845 804 -6.155998883714366E-1
845 844 -4.145486784510869E-1
845 845 3.528884812376062
845 846 -6.438917597701672E-1
845 887 -7.875349709677034E-1
845 888 -4.5606620581317203E-1
846 804 -5.713448926514856E-1
846 805 -5.839308665104516E-1
846 845 -6.438917597701672E-1
846 846 3.4900475435707112
846 847 -5.77333768836735E-1
846 888 -4.319972831600599E-1
846 889 -6.81548972641812E-1
847 805 -5.751843623226385E-1
847 806 -5.773502691896274E-1
847 846 -5.77333768836735E-1
847 847 3.4641181154906455
847 848 -5.773502691896234E-1
847 889 -5.795491767623979E-1
847 890 -5.773502691896235E-1
848 806 -5.773502691896252E-1
848 807 -5.773502691896281E-1
848 847 -5.773502691896234E-1
848 848 3.4641019960092874
848 849 -5.768835862762538E-1
848 890 -5.773046137565152E-1
848 891 -5.778629884076416E-1
849 807 -5.773502691896311E-1
849 827 -5.773502691896328E-1
849 848 -5.768835862762538E-1
849 849 3.464102299320805
849 869 -5.773502691896248E-1
849 891 -5.782382529987471E-1
849 892 -5.769296524769155E-1
850 808 -5.773502691896231E-1
850 809 -5.773502691896311E-1
850 827 -5.773502691896202E-1
850 850 3.4641016151377544
850 851 -5.773502691896363E-1
850 869 -5.773502691896406E-1
850 893 -5.773502691896031E-1
851 809 -5.773502691896174E-1
851 828 -5.773502691896231E-1
851 850 -5.773502691896363E-1
851 851 3.4641016151377544
851 870 -5.773502691896396E-1
851 893 -5.773502691896236E-1
851 894 -5.773502691896144E-1
852 810 -3.0181523180552466E-1
852 825 -9.853887144165252E-1
852 834 -6.113909007310039E-1
852 842 -4.969494000770182E-1
852 852 3.599137593142584
852 876 -6.510783936982925E-1
852 885 -5.525149524142201E-1
853 811 -5.773502691896204E-1
853 812 -5.773502691896379E-1
853 829 -5.773502691896253E-1
853 853 3.4641016151377544
853 854 -5.773502691896207E-1
853 871 -5.773502691896233E-1
853 895 -5.773502691896264E-1
854 812 -5.773502692912622E-1
854 813 -5.773502682748886E-1
854 853 -5.773502691896207E-1
854 854 3.4641016151377544
854 855 -5.773502622769606E-1
854 895 -5.773502656316626E-1
854 896 -5.773502804733597E-1
855 813 -5.773074611912126E-1
855 814 -5.774142867112337E-1
855 854 -5.773502622769606E-1
855 855 3.4641016190909335
855 856 -5.773290607499889E-1
855 896 -5.77350275367696E-1
855 897 -5.773502727938418E-1
856 814 -5.773498707529237E-1
856 835 -5.773718763079908E-1
856 855 -5.773290607499889E-1
856 856 3.464101616725038
856 877 -5.773502598073588E-1
856 897 -5.773502700354769E-1
856 898 -5.773502790712985E-1
857 798 -5.96202300000636E-1
857 837 -8.71230373414468E-1
857 840 -9.021703271001955E-1
857 857 3.713467769998092
857 879 -7.944218503782458E-1
857 882 -5.494429191045467E-1
858 816 -3.917126131936619E-1
858 841 -5.345738719639628E-1
858 858 3.4868524125794966
858 859 -6.441458370212567E-1
858 883 -5.286535753989214E-1
858 900 -2.0990043507437206E-1
858 901 -3.2815758135132045E-1
858 926 -8.497084985760021E-1
859 816 -5.25010657446452E-1
859 817 -3.577554643020524E-1
859 858 -6.441458370212567E-1
859 859 3.6280674267589332
859 860 -9.407411172577702E-1
859 901 -8.676715217254247E-1
859 902 -2.927428290059773E-1
860 817 -5.257572269000493E-1
860 819 -8.731068312456882E-1
860 859 -9.407411172577702E-1
860 860 3.7111515967494633
860 862 -7.695389940914297E-1
860 902 -6.02007427254526E-1
861 818 -5.483917596012612E-1
861 820 -5.835837452731587E-1
861 861 3.465571771747518
861 862 -6.134027690096404E-1
861 863 -5.826134777734442E-1
861 903 -5.645894645127736E-1
861 904 -5.729905555772401E-1
862 818 -6.182782920078127E-1
862 819 -3.723173976306847E-1
862 860 -7.695389940914297E-1
862 861 -6.134027690096404E-1
862 862 3.521872926235461
862 902 -5.297161110888473E-1
862 903 -6.186193624070464E-1
863 820 -5.725227563724635E-1
863 822 -5.7848000324219E-1
863 861 -5.826134777734442E-1
863 863 3.464134585703885
863 865 -5.792250850123939E-1
863 904 -5.757076501942038E-1
863 905 -5.755856131091892E-1
864 821 -3.1491114105120166E-1
864 842 -7.354611006947653E-1
864 864 1.9387629310207646
864 884 -5.183508024595269E-1
864 906 -3.700398868152704E-1
865 822 -5.760509343497117E-1
865 823 -5.772350662133299E-1
865 863 -5.792250850123939E-1
865 865 3.4641048847249194
865 866 -5.773502691896242E-1
865 905 -5.774770722909025E-1
865 907 -5.767664576689573E-1
866 823 -5.773502691896273E-1
866 824 -5.773502691896245E-1
866 865 -5.773502691896242E-1
866 866 3.4641016151377544
866 867 -5.773502691896277E-1
866 907 -5.773502691896283E-1
866 908 -5.773502691896226E-1
867 824 -5.773502691896284E-1
867 828 -5.773502691896145E-1
867 866 -5.773502691896277E-1
867 867 3.464101615137754
867 870 -5.773502691896328E-1
867 908 -5.773502691896146E-1
867 909 -5.773502691896363E-1
868 826 -3.2330251270363497E-1
868 843 -5.557862532641757E-1
868 868 1.70122243186921
868 886 -5.440853019492207E-1
868 910 -2.780483639521787E-1
869 827 -5.773502691896244E-1
869 849 -5.773502691896248E-1
869 850 -5.773502691896406E-1
869 869 3.4641016151377544
869 892 -5.773502691896305E-1
869 893 -5.773502691895976E-1
869 911 -5.773502691896364E-1
870 828 -5.773502691896357E-1
870 851 -5.773502691896396E-1
870 867 -5.773502691896328E-1
870 870 3.4641016151377544
870 894 -5.773502691896001E-1
870 909 -5.773502691896132E-1
870 912 -5.773502691896331E-1
871 829 -5.773497510215123E-1
871 830 -5.77331651566038E-1
871 853 -5.773502691896233E-1
871 871 3.46410161595957
871 872 -5.773822265241619E-1
871 895 -5.773502691896262E-1
871 913 -5.773374484686082E-1
872 830 -5.773629755120792E-1
872 831 -5.7727777813621E-1
872 871 -5.773822265241619E-1
872 872 3.464101620200965
872 873 -5.774117427246306E-1
872 913 -5.773347669469082E-1
872 914 -5.773321303569756E-1
873 831 -5.774001716031998E-1
873 832 -5.771746401929423E-1
873 872 -5.774117427246306E-1
873 873 3.4641016422601076
873 874 -5.774775281307387E-1
873 914 -5.773063511344727E-1
873 915 -5.77331208474124E-1
874 832 -5.774944759896024E-1
874 833 -5.77077135189459E-1
874 873 -5.774775281307387E-1
874 874 3.4641024969273775
874 875 -5.782253033129798E-1
874 915 -5.774271006095085E-1
874 916 -5.764009536950885E-1
875 833 -5.740662314621829E-1
875 834 -5.784732807421183E-1
875 874 -5.782253033129798E-1
875 875 3.464133464285603
875 876 -5.759413947788943E-1
875 916 -5.78145814488694E-1
875 917 -5.79281439500734E-1
876 834 -5.524876294004568E-1
876 852 -6.510783936982925E-1
876 875 -5.759413947788943E-1
876 876 3.476533714227796
876 885 -4.921675787532302E-1
876 917 -5.422761356955556E-1
876 918 -6.625825819013663E-1
877 835 -5.773502716391512E-1
877 836 -5.768102139368365E-1
877 856 -5.773502598073588E-1
877 877 3.46410415335678
877 878 -5.78975514002567E-1
877 898 -5.77350278783364E-1
877 919 -5.762676151875024E-1
878 836 -5.708410082101878E-1
878 838 -5.855296829432249E-1
878 877 -5.78975514002567E-1
878 878 3.464184165822318
878 880 -5.725131849066805E-1
878 919 -5.789755230393293E-1
878 920 -5.773492527203286E-1
879 837 -8.512351133994478E-2
879 857 -7.944218503782458E-1
879 879 1.7704338724827489
879 882 -6.876005418269853E-1
879 921 -2.0328796893757312E-1
880 838 -5.388562050424565E-1
880 839 -6.281410323876775E-1
880 878 -5.725131849066805E-1
880 880 3.4672152120742576
880 881 -5.991505922989446E-1
880 920 -5.778923571315027E-1
880 922 -5.506618403069956E-1
881 839 -5.190435557517469E-1
881 840 -5.54239502645518E-1
881 880 -5.991505922989446E-1
881 881 3.4966015248583058
881 899 -7.959484379034663E-1
881 922 -5.728626280063771E-1
881 923 -4.5535680825225255E-1
882 840 -4.771025129997294E-1
882 857 -5.494429191045467E-1
882 879 -6.876005418269853E-1
882 882 3.5271601057389943
882 899 -8.112120702978245E-1
882 921 -5.758911840335009E-1
882 924 -4.259108774764076E-1
883 841 -3.4667605628641246E-1
883 858 -5.286535753989214E-1
883 883 1.9393935694693538
883 900 -8.525783285033597E-1
883 925 -2.1148560928066024E-1
884 842 -1.9070642879576027E-1
884 864 -5.183508024595269E-1
884 884 3.466996430282848
884 885 -6.244574802805845E-1
884 906 -6.459405208467713E-1
884 927 -5.09759304560531E-1
884 928 -5.570648755544261E-1
884 951 -4.2071701778524817E-1
885 842 -6.730558517271756E-1
885 852 -5.525149524142201E-1
885 876 -4.921675787532302E-1
885 884 -6.244574802805845E-1
885 885 3.5868106410305542
885 918 -3.488947277927096E-1
885 928 -8.957200500626349E-1
886 843 -5.961252108332095E-1
886 844 -5.792255359159411E-1
886 868 -5.440853019492207E-1
886 886 3.4815245272384163
886 887 -5.898234482944236E-1
886 910 -6.232423879977185E-1
886 929 -5.490226422479031E-1
887 844 -7.474969291552158E-1
887 845 -7.875349709677034E-1
887 886 -5.898234482944236E-1
887 887 3.6596868977238945
887 888 -6.864280879263116E-1
887 929 -8.484034613802401E-1
888 845 -4.5606620581317203E-1
888 846 -4.319972831600599E-1
888 887 -6.864280879263116E-1
888 888 3.4224724779701914
888 889 -4.414709868328907E-1
888 929 -3.487820953606955E-1
888 930 -5.950066405464983E-1
888 956 -4.627211783305635E-1
889 846 -6.81548972641812E-1
889 847 -5.795491767623979E-1
889 888 -4.414709868328907E-1
889 889 3.49059039594883
889 890 -5.508177303189137E-1
889 930 -6.432983370374811E-1
889 931 -5.93905192355335E-1
890 847 -5.773502691896235E-1
890 848 -5.773046137565152E-1
890 889 -5.508177303189137E-1
890 890 3.4657166594543565
890 891 -5.741746378002079E-1
890 931 -6.207780582307458E-1
890 932 -5.652913501583505E-1
891 848 -5.778629884076416E-1
891 849 -5.782382529987471E-1
891 890 -5.741746378002079E-1
891 891 3.464123581246989
891 892 -5.777248606018432E-1
891 932 -5.818079468178479E-1
891 933 -5.743148946207015E-1
892 849 -5.769296524769155E-1
892 869 -5.773502691896305E-1
892 891 -5.777248606018432E-1
892 892 3.464101925266208
892 911 -5.773502691896188E-1
892 933 -5.773966046185742E-1
892 934 -5.773502691896258E-1
893 850 -5.773502691896031E-1
893 851 -5.773502691896236E-1
893 869 -5.773502691895976E-1
893 893 3.4641016151377544
893 894 -5.773502691896711E-1
893 911 -5.77350269189628E-1
893 935 -5.77350269189631E-1
894 851 -5.773502691896144E-1
894 870 -5.773502691896001E-1
894 893 -5.773502691896711E-1
894 894 3.464101615137754
894 912 -5.773502691896204E-1
894 935 -5.773502691895824E-1
894 936 -5.773502691896658E-1
895 853 -5.773502691896264E-1
895 854 -5.773502656316626E-1
895 871 -5.773502691896262E-1
895 895 3.4641016151377544
895 896 -5.773502691896222E-1
895 913 -5.773502691896221E-1
895 937 -5.773502727475949E-1
896 854 -5.773502804733597E-1
896 855 -5.77350275367696E-1
896 895 -5.773502691896222E-1
896 896 3.464101615137757
896 897 -5.773502342660118E-1
896 937 -5.773502404440958E-1
896 938 -5.773503153969717E-1
897 855 -5.773502727938418E-1
897 856 -5.773502700354769E-1
897 896 -5.773502342660118E-1
897 897 3.464101615137757
897 898 -5.77350231076392E-1
897 938 -5.773502989141917E-1
897 939 -5.773503080518427E-1
898 856 -5.773502790712985E-1
898 877 -5.77350278783364E-1
898 897 -5.77350231076392E-1
898 898 3.4641016151377566
898 919 -5.773502542101312E-1
898 939 -5.773503089880552E-1
898 940 -5.773502630085158E-1
899 840 -3.2124827582228477E-1
899 881 -7.959484379034663E-1
899 882 -8.112120702978245E-1
899 899 3.5462297307733417
899 923 -5.9333813329604E-1
899 924 -5.676878450863514E-1
899 941 -4.5679496836737477E-1
900 858 -2.0990043507437206E-1
900 883 -8.525783285033597E-1
900 900 3.686454168222994
900 925 -7.527023810640513E-1
900 926 -8.399823921707548E-1
900 942 -2.8522358881040055E-1
900 943 -7.46067042600056E-1
901 858 -3.2815758135132045E-1
901 859 -8.676715217254247E-1
901 901 3.5624110938177904
901 902 -4.8256712548803105E-1
901 926 -7.338771454598261E-1
901 944 -5.844505556014755E-1
901 945 -5.656871641917126E-1
902 859 -2.927428290059773E-1
902 860 -6.02007427254526E-1
902 862 -5.297161110888473E-1
902 901 -4.8256712548803105E-1
902 902 3.4085911718808415
902 903 -4.5362796436955083E-1
902 945 -5.917154003515929E-1
902 946 -4.5621431432231574E-1
903 861 -5.645894645127736E-1
903 862 -6.186193624070464E-1
903 902 -4.5362796436955083E-1
903 903 3.481719839811296
903 904 -5.83159054246176E-1
903 946 -6.738691684769349E-1
903 947 -5.878548257988149E-1
904 861 -5.729905555772401E-1
904 863 -5.757076501942038E-1
904 903 -5.83159054246176E-1
904 904 3.464139847385037
904 905 -5.797364599184613E-1
904 947 -5.753185932679524E-1
904 948 -5.772275341810036E-1
905 863 -5.755856131091892E-1
905 865 -5.774770722909025E-1
905 904 -5.797364599184613E-1
905 905 3.4641069370709396
905 907 -5.78243687783206E-1
905 948 -5.759870726132081E-1
905 949 -5.770770313559729E-1
906 864 -3.700398868152704E-1
906 884 -6.459405208467713E-1
906 906 1.9033526975912656
906 927 -6.069225353919875E-1
906 950 -2.804497545372365E-1
907 865 -5.767664576689573E-1
907 866 -5.773502691896283E-1
907 905 -5.78243687783206E-1
907 907 3.4641023711846337
907 908 -5.77350269189626E-1
907 949 -5.770414181635894E-1
907 952 -5.773502691896267E-1
908 866 -5.773502691896226E-1
908 867 -5.773502691896146E-1
908 907 -5.77350269189626E-1
908 908 3.4641016151377544
908 909 -5.773502691896446E-1
908 952 -5.773502691896153E-1
908 953 -5.773502691896315E-1
909 867 -5.773502691896363E-1
909 870 -5.773502691896132E-1
909 908 -5.773502691896446E-1
909 909 3.4641016151377544
909 912 -5.773502691896268E-1
909 953 -5.773502691895955E-1
909 954 -5.773502691896379E-1
910 868 -2.780483639521787E-1
910 886 -6.232423879977185E-1
910 910 1.7032172211911574
910 929 -5.057268671229349E-1
910 955 -2.9619960211832524E-1
911 869 -5.773502691896364E-1
911 892 -5.773502691896188E-1
911 893 -5.77350269189628E-1
911 911 3.4641016151377544
911 934 -5.773502691896168E-1
911 935 -5.773502691896266E-1
911 957 -5.773502691896277E-1
912 870 -5.773502691896331E-1
912 894 -5.773502691896204E-1
912 909 -5.773502691896268E-1
912 912 3.4641016151377544
912 936 -5.773502691896224E-1
912 954 -5.77350269189616E-1
912 958 -5.773502691896355E-1
913 871 -5.773374484686082E-1
913 872 -5.773347669469082E-1
913 895 -5.773502691896221E-1
913 913 3.46410161622858
913 914 -5.773897924516304E-1
913 937 -5.773502691896248E-1
913 959 -5.773390699821862E-1
914 872 -5.773321303569756E-1
914 873 -5.773063511344727E-1
914 913 -5.773897924516304E-1
914 914 3.4641016210741182
914 915 -5.774279018185258E-1
914 959 -5.773291311844577E-1
914 960 -5.773163141280564E-1
915 873 -5.77331208474124E-1
915 874 -5.774271006095085E-1
915 914 -5.774279018185258E-1
915 915 3.4641019451278647
915 916 -5.77722048836206E-1
915 960 -5.768960841260122E-1
915 961 -5.772976012634882E-1
916 874 -5.764009536950885E-1
916 875 -5.78145814488694E-1
916 915 -5.77722048836206E-1
916 916 3.464107312317472
916 917 -5.776296444624809E-1
916 961 -5.752670213244986E-1
916 962 -5.789418295105041E-1
917 875 -5.79281439500734E-1
917 876 -5.422761356955556E-1
917 916 -5.776296444624809E-1
917 917 3.465896964129981
917 918 -6.208164780645722E-1
917 962 -5.682438059503121E-1
917 963 -5.776494604563263E-1
918 876 -6.625825819013663E-1
918 885 -3.488947277927096E-1
918 917 -6.208164780645722E-1
918 918 3.547293661555451
918 928 -8.686310491300961E-1
918 963 -5.694485444372548E-1
918 964 -4.7692028022945265E-1
919 877 -5.762676151875024E-1
919 878 -5.789755230393293E-1
919 898 -5.773502542101312E-1
919 919 3.4641041533721526
919 920 -5.768102095849741E-1
919 940 -5.773502914170467E-1
919 965 -5.77350259933169E-1
920 878 -5.773492527203286E-1
920 880 -5.778923571315027E-1
920 919 -5.768102095849741E-1
920 920 3.4641026292907005
920 922 -5.773502686446257E-1
920 965 -5.773502744369448E-1
920 966 -5.773502667723247E-1
921 879 -2.0328796893757312E-1
921 882 -5.758911840335009E-1
921 921 1.7173027041562503
921 924 -7.158168465733837E-1
921 967 -2.2230670461179264E-1
922 880 -5.506618403069956E-1
922 881 -5.728626280063771E-1
922 920 -5.773502686446257E-1
922 922 3.4798491638727373
922 923 -7.317079231533856E-1
922 966 -5.564216806106659E-1
922 968 -4.908448231506872E-1
923 881 -4.5535680825225255E-1
923 899 -5.9333813329604E-1
923 922 -7.317079231533856E-1
923 923 3.4928870794640106
923 941 -6.867024976516032E-1
923 968 -5.732425785977103E-1
923 969 -4.525391385130189E-1
924 882 -4.259108774764076E-1
924 899 -5.676878450863514E-1
924 921 -7.158168465733837E-1
924 924 3.4974424265614896
924 941 -7.374569132695501E-1
924 967 -5.512436524405475E-1
924 970 -4.9932629171524956E-1
925 883 -2.1148560928066024E-1
925 900 -7.527023810640513E-1
925 925 1.930683301313175
925 942 -6.819096426414881E-1
925 971 -2.845856683269754E-1
926 858 -8.497084985760021E-1
926 900 -8.399823921707548E-1
926 901 -7.338771454598261E-1
926 926 3.681099955837806
926 943 -5.055185855822524E-1
926 944 -7.52013334048971E-1
927 884 -5.09759304560531E-1
927 906 -6.069225353919875E-1
927 927 3.4852751057705382
927 950 -6.22195167484705E-1
927 951 -6.620603260169016E-1
927 972 -4.761855205882033E-1
927 973 -6.0815225172821E-1
928 884 -5.570648755544261E-1
928 885 -8.957200500626349E-1
928 918 -8.686310491300961E-1
928 928 3.7164299382640884
928 951 -9.114174605538325E-1
928 964 -4.8359650296309864E-1
929 886 -5.490226422479031E-1
929 887 -8.484034613802401E-1
929 888 -3.487820953606955E-1
929 910 -5.057268671229349E-1
929 929 3.552111438877647
929 955 -5.799806807324202E-1
929 956 -7.201956920334535E-1
930 888 -5.950066405464983E-1
930 889 -6.432983370374811E-1
930 930 3.503940208909502
930 931 -4.690328515798112E-1
930 956 -6.152307430982817E-1
930 974 -6.895502442914085E-1
930 975 -4.9182139235602146E-1
931 889 -5.93905192355335E-1
931 890 -6.207780582307458E-1
931 930 -4.690328515798112E-1
931 931 3.5288004363069625
931 932 -6.10950049032225E-1
931 974 -8.265473573775868E-1
931 976 -4.075869277312585E-1
932 890 -5.652913501583505E-1
932 891 -5.818079468178479E-1
932 931 -6.10950049032225E-1
932 932 3.4707438275439424
932 933 -5.604717492591567E-1
932 976 -5.249601576802372E-1
932 977 -6.272625745961251E-1
933 891 -5.743148946207015E-1
933 892 -5.773966046185742E-1
933 932 -5.604717492591567E-1
933 933 3.465976676195055
933 934 -5.713710937201013E-1
933 977 -6.305849065324047E-1
933 978 -5.518374274441165E-1
934 892 -5.773502691896258E-1
934 911 -5.773502691896168E-1
934 933 -5.713710937201013E-1
934 934 3.4644224723283967
934 957 -5.773502691896325E-1
934 978 -5.957821060583846E-1
934 979 -5.652184649810352E-1
935 893 -5.77350269189631E-1
935 894 -5.773502691895824E-1
935 911 -5.773502691896266E-1
935 935 3.4641019061651623
935 936 -5.769587176281913E-1
935 957 -5.772291494504251E-1
935 980 -5.778632315177061E-1
936 894 -5.773502691896658E-1
936 912 -5.773502691896224E-1
936 935 -5.769587176281913E-1
936 936 3.464102093699687
936 958 -5.768934479801435E-1
936 980 -5.778708378839672E-1
936 981 -5.776785518280974E-1
937 895 -5.773502727475949E-1
937 896 -5.773502404440958E-1
937 913 -5.773502691896248E-1
937 937 3.4641016151377557
937 938 -5.773502763055527E-1
937 959 -5.773502691896274E-1
937 982 -5.773502872612605E-1
938 896 -5.773503153969717E-1
938 897 -5.773502989141917E-1
938 937 -5.773502763055527E-1
938 938 3.464101615137811
938 939 -5.773500977612616E-1
938 982 -5.773501265942331E-1
938 983 -5.773505001655999E-1
939 897 -5.773503080518427E-1
939 898 -5.773503089880552E-1
939 938 -5.773500977612616E-1
939 939 3.4641016151377935
939 940 -5.773502149292584E-1
939 983 -5.773504603397983E-1
939 984 -5.773502250675773E-1
940 898 -5.773502630085158E-1
940 919 -5.773502914170467E-1
940 939 -5.773502149292584E-1
940 940 3.46410161513776
940 965 -5.773502593921231E-1
940 984 -5.773503518625325E-1
940 985 -5.773502345282838E-1
941 899 -4.5679496836737477E-1
941 923 -6.867024976516032E-1
941 924 -7.374569132695501E-1
941 941 3.528445782742217
941 969 -4.7576304710095435E-1
941 970 -4.2015541897616543E-1
941 986 -7.515729373765694E-1
942 900 -2.8522358881040055E-1
942 925 -6.819096426414881E-1
942 942 3.5438604807963547
942 943 -3.41236104297338E-1
942 971 -6.484184657931189E-1
942 987 -2.5582954322652973E-1
942 988 -4.2870447301368847E-1
942 1016 -9.025386630137908E-1
943 900 -7.46067042600056E-1
943 926 -5.055185855822524E-1
943 942 -3.41236104297338E-1
943 943 3.5878979597737595
943 944 -4.093652033294447E-1
943 988 -8.248646778847093E-1
943 989 -7.608463460799593E-1
944 901 -5.844505556014755E-1
944 926 -7.52013334048971E-1
944 943 -4.093652033294447E-1
944 944 3.5133636189092368
944 945 -5.216738796294884E-1
944 989 -5.385385229612765E-1
944 990 -7.073221233385806E-1
945 901 -5.656871641917126E-1
945 902 -5.917154003515929E-1
945 944 -5.216738796294884E-1
945 945 3.475831668721111
945 946 -6.734173611904173E-1
945 990 -5.441034103567154E-1
945 991 -5.792344530011844E-1
946 902 -4.5621431432231574E-1
946 903 -6.738691684769349E-1
946 945 -6.734173611904173E-1
946 946 3.484617118203165
946 947 -5.589847044881642E-1
946 991 -5.657787542285124E-1
946 992 -5.563528154968205E-1
947 903 -5.878548257988149E-1
947 904 -5.753185932679524E-1
947 946 -5.589847044881642E-1
947 947 3.4645366908019133
947 948 -5.765069734864317E-1
947 992 -5.925000534729847E-1
947 993 -5.733715402875652E-1
948 904 -5.772275341810036E-1
948 905 -5.759870726132081E-1
948 947 -5.765069734864317E-1
948 948 3.464108427545463
948 949 -5.780929841677869E-1
948 993 -5.789306707613266E-1
948 994 -5.773631923357067E-1
949 905 -5.770770313559729E-1
949 907 -5.770414181635894E-1
949 948 -5.780929841677869E-1
949 949 3.464102031208361
949 952 -5.773502691896284E-1
949 994 -5.771900591417555E-1
949 995 -5.77350269189628E-1
950 906 -2.804497545372365E-1
950 927 -6.22195167484705E-1
950 950 1.913491987746049
950 972 -7.74544378729466E-1
950 996 -2.363026869946414E-1
951 884 -4.2071701778524817E-1
951 927 -6.620603260169016E-1
951 928 -9.114174605538325E-1
951 951 3.564493569188597
951 964 -4.099971202887097E-1
951 973 -4.2968750791326776E-1
951 997 -7.306141366306369E-1
952 907 -5.773502691896267E-1
952 908 -5.773502691896153E-1
952 949 -5.773502691896284E-1
952 952 3.4641016151377544
952 953 -5.773502691896396E-1
952 995 -5.773502691896178E-1
952 998 -5.773502691896268E-1
953 908 -5.773502691896315E-1
953 909 -5.773502691895955E-1
953 952 -5.773502691896396E-1
953 953 3.464101615137755
953 954 -5.773502691896519E-1
953 998 -5.773502691896012E-1
953 999 -5.773502691896348E-1
954 909 -5.773502691896379E-1
954 912 -5.77350269189616E-1
954 953 -5.773502691896519E-1
954 954 3.464101615137755
954 958 -5.773502691896206E-1
954 999 -5.773502691895978E-1
954 1000 -5.773502691896304E-1
955 910 -2.9619960211832524E-1
955 929 -5.799806807324202E-1
955 955 1.7003921888119446
955 956 -5.230199089853028E-1
955 1001 -3.011919969758965E-1
956 888 -4.627211783305635E-1
956 929 -7.201956920334535E-1
956 930 -6.152307430982817E-1
956 955 -5.230199089853028E-1
956 956 3.4908970036564773
956 975 -6.336991654386306E-1
956 1001 -5.360303157702456E-1
957 911 -5.773502691896277E-1
957 934 -5.773502691896325E-1
957 935 -5.772291494504251E-1
957 957 3.4641017670844456
957 979 -5.773502691896286E-1
957 980 -5.772012668966607E-1
957 1002 -5.776205431684711E-1
958 912 -5.773502691896355E-1
958 936 -5.768934479801435E-1
958 954 -5.773502691896206E-1
958 958 3.464102148910091
958 981 -5.781227358767574E-1
958 1000 -5.773502691896195E-1
958 1003 -5.770351574843143E-1
959 913 -5.773390699821862E-1
959 914 -5.773291311844577E-1
959 937 -5.773502691896274E-1
959 959 3.464101616454126
959 960 -5.773942363951308E-1
959 982 -5.773439057749143E-1
959 1004 -5.773450039278094E-1
960 914 -5.773163141280564E-1
960 915 -5.768960841260122E-1
960 959 -5.773942363951308E-1
960 960 3.4641026571340414
960 961 -5.785550171934277E-1
960 1004 -5.772289007944248E-1
960 1005 -5.767121044969896E-1
961 915 -5.772976012634882E-1
961 916 -5.752670213244986E-1
961 960 -5.785550171934277E-1
961 961 3.4641107309947774
961 962 -5.804274517512376E-1
961 1005 -5.771326254015723E-1
961 1006 -5.754310140605533E-1
962 916 -5.789418295105041E-1
962 917 -5.682438059503121E-1
962 961 -5.804274517512376E-1
962 962 3.464244426070155
962 963 -5.899328950744538E-1
962 1006 -5.759191431396835E-1
962 1007 -5.707793006439639E-1
963 917 -5.776494604563263E-1
963 918 -5.694485444372548E-1
963 962 -5.899328950744538E-1
963 963 3.4666309459307643
963 964 -5.668101703958071E-1
963 1007 -5.632732026438179E-1
963 1008 -5.995166729231041E-1
964 918 -4.7692028022945265E-1
964 928 -4.8359650296309864E-1
964 951 -4.099971202887097E-1
964 963 -5.668101703958071E-1
964 964 3.3891244974350823
964 997 -5.837151745193472E-1
964 1008 -4.580298009099588E-1
964 1020 -4.100554481287083E-1
965 919 -5.77350259933169E-1
965 920 -5.773502744369448E-1
965 940 -5.773502593921231E-1
965 965 3.464101615137755
965 966 -5.773502697980972E-1
965 985 -5.773502934465697E-1
965 1009 -5.77350258130851E-1
966 920 -5.773502667723247E-1
966 922 -5.564216806106659E-1
966 965 -5.773502697980972E-1
966 966 3.4683554335091973
966 968 -6.462231753029066E-1
966 1009 -5.773502708420204E-1
966 1010 -5.336597701831822E-1
967 921 -2.2230670461179264E-1
967 924 -5.512436524405475E-1
967 967 1.7228072473034355
967 970 -7.479538381950013E-1
967 1011 -2.01303052056094E-1
968 922 -4.908448231506872E-1
968 923 -5.732425785977103E-1
968 966 -6.462231753029066E-1
968 968 3.4862020830919143
968 969 -6.952683000407189E-1
968 1010 -6.311299829381423E-1
968 1012 -4.4949322306174916E-1
969 923 -4.525391385130189E-1
969 941 -4.7576304710095435E-1
969 968 -6.952683000407189E-1
969 969 3.5610505403423307
969 986 -7.69030991853037E-1
969 1012 -7.993217306734607E-1
969 1013 -3.6912733216114096E-1
970 924 -4.9932629171524956E-1
970 941 -4.2015541897616543E-1
970 967 -7.479538381950013E-1
970 970 3.5226205206928602
970 986 -7.941340879290419E-1
970 1011 -5.662141873154181E-1
970 1014 -4.9483669656198354E-1
971 925 -2.845856683269754E-1
971 942 -6.484184657931189E-1
971 971 1.9011400583367257
971 987 -6.5647892709571E-1
971 1015 -3.116569971209213E-1
972 927 -4.761855205882033E-1
972 950 -7.74544378729466E-1
972 972 3.6315155899745775
972 973 -5.118834785436863E-1
972 996 -6.682776019971297E-1
972 1017 -2.1108150813656207E-1
972 1018 -9.895431019795298E-1
973 927 -6.0815225172821E-1
973 951 -4.2968750791326776E-1
973 972 -5.118834785436863E-1
973 973 3.424737313247259
973 997 -3.729954348192273E-1
973 1018 -3.481945553752315E-1
973 1019 -7.048628082090009E-1
973 1045 -4.489612766586359E-1
974 930 -6.895502442914085E-1
974 931 -8.265473573775868E-1
974 974 3.6547126393183937
974 975 -6.865014059111526E-1
974 976 -6.182889075095068E-1
974 1021 -8.338247242287392E-1
975 930 -4.9182139235602146E-1
975 956 -6.336991654386306E-1
975 974 -6.865014059111526E-1
975 975 3.493182690577107
975 1001 -6.191072459642125E-1
975 1021 -4.577635582751979E-1
975 1022 -6.042899226318923E-1
976 931 -4.075869277312585E-1
976 932 -5.249601576802372E-1
976 974 -6.182889075095068E-1
976 976 3.411922590039249
976 977 -4.0318013064352876E-1
976 1021 -4.309150191861705E-1
976 1023 -5.984904413120065E-1
976 1050 -4.28501005976541E-1
977 932 -6.272625745961251E-1
977 933 -6.305849065324047E-1
977 976 -4.0318013064352876E-1
977 977 3.5542475470622117
977 978 -6.336625195898041E-1
977 1023 -8.935556241920134E-1
977 1024 -3.6600179150833545E-1
978 933 -5.518374274441165E-1
978 934 -5.957821060583846E-1
978 977 -6.336625195898041E-1
978 978 3.470335096389228
978 979 -5.692034739304691E-1
978 1024 -5.538442406025481E-1
978 1025 -5.660053287639055E-1
979 934 -5.652184649810352E-1
979 957 -5.773502691896286E-1
979 978 -5.692034739304691E-1
979 979 3.4704460781774755
979 1002 -5.691479226200584E-1
979 1025 -6.700736090231566E-1
979 1026 -5.194523384331278E-1
980 935 -5.778632315177061E-1
980 936 -5.778708378839672E-1
980 957 -5.772012668966607E-1
980 980 3.4641110367877523
980 981 -5.749750399738516E-1
980 1002 -5.759666307944843E-1
980 1027 -5.802340297210824E-1
981 936 -5.776785518280974E-1
981 958 -5.781227358767574E-1
981 980 -5.749750399738516E-1
981 981 3.464113359755279
981 1003 -5.775238181976048E-1
981 1027 -5.806797450000829E-1
981 1028 -5.751334688788845E-1
982 937 -5.773502872612605E-1
982 938 -5.773501265942331E-1
982 959 -5.773439057749143E-1
982 982 3.464101615216116
982 983 -5.773492447662654E-1
982 1004 -5.773592840675572E-1
982 1029 -5.773487667518857E-1
983 938 -5.773505001655999E-1
983 939 -5.773504603397983E-1
983 982 -5.773492447662654E-1
983 983 3.464101615139542
983 984 -5.773501030669727E-1
983 1029 -5.77351491788263E-1
983 1030 -5.773498150126426E-1
984 939 -5.773502250675773E-1
984 940 -5.773503518625325E-1
984 983 -5.773501030669727E-1
984 984 3.464101615137813
984 985 -5.773502390981833E-1
984 1030 -5.77350547449963E-1
984 1031 -5.77350148592584E-1
985 940 -5.773502345282838E-1
985 965 -5.773502934465697E-1
985 984 -5.773502390981833E-1
985 985 3.46410161513776
985 1009 -5.773502726769322E-1
985 1031 -5.773503507317885E-1
985 1032 -5.773502246560023E-1
986 941 -7.515729373765694E-1
986 969 -7.69030991853037E-1
986 970 -7.941340879290419E-1
986 986 3.6526278997815105
986 1013 -6.901705119152179E-1
986 1014 -6.477193707076442E-1
987 942 -2.5582954322652973E-1
987 971 -6.5647892709571E-1
987 987 3.504621447318794
987 1015 -6.368353353709016E-1
987 1016 -5.129281137261054E-1
987 1033 -2.9317370488007527E-1
987 1034 -6.602629103287784E-1
987 1063 -4.8911291269069385E-1
988 942 -4.2870447301368847E-1
988 943 -8.248646778847093E-1
988 988 3.582257391049118
988 989 -4.1424815828050277E-1
988 1016 -7.721482099585877E-1
988 1035 -4.417876362911584E-1
988 1036 -7.005042356204709E-1
989 943 -7.608463460799593E-1
989 944 -5.385385229612765E-1
989 988 -4.1424815828050277E-1
989 989 3.498056003900497
989 990 -5.113152189968502E-1
989 1036 -6.22405465244277E-1
989 1037 -6.507022923376313E-1
990 944 -7.073221233385806E-1
990 945 -5.441034103567154E-1
990 989 -5.113152189968502E-1
990 990 3.4746892466147035
990 991 -5.796829356294383E-1
990 1037 -5.553086806573846E-1
990 1038 -5.769568776357342E-1
991 945 -5.792344530011844E-1
991 946 -5.657787542285124E-1
991 990 -5.796829356294383E-1
991 991 3.464385681667897
991 992 -5.90185619420079E-1
991 1038 -5.753946948405586E-1
991 1039 -5.741092245481243E-1
992 946 -5.563528154968205E-1
992 947 -5.925000534729847E-1
992 991 -5.90185619420079E-1
992 992 3.4645737980043143
992 993 -5.761054789179088E-1
992 1039 -5.783492901577986E-1
992 1040 -5.710805405387231E-1
993 947 -5.733715402875652E-1
993 948 -5.789306707613266E-1
993 992 -5.761054789179088E-1
993 993 3.464123496718198
993 994 -5.774976381635084E-1
993 1040 -5.808678993982178E-1
993 1041 -5.773502691896716E-1
994 948 -5.773631923357067E-1
994 949 -5.771900591417555E-1
994 993 -5.774976381635084E-1
994 994 3.464101697209848
994 995 -5.773502691896313E-1
994 1041 -5.773502691896241E-1
994 1042 -5.773502691896222E-1
995 949 -5.77350269189628E-1
995 952 -5.773502691896178E-1
995 994 -5.773502691896313E-1
995 995 3.464101615137755
995 998 -5.773502691896406E-1
995 1042 -5.773502691896126E-1
995 1043 -5.773502691896243E-1
996 950 -2.363026869946414E-1
996 972 -6.682776019971297E-1
996 996 1.9139903326161498
996 1017 -6.845506709637813E-1
996 1044 -3.2485937266059733E-1
997 951 -7.306141366306369E-1
997 964 -5.837151745193472E-1
997 973 -3.729954348192273E-1
997 997 3.6441113072736098
997 1019 -7.958886004256855E-1
997 1020 -9.609304774546609E-1
997 1046 -1.9996748342405207E-1
998 952 -5.773502691896268E-1
998 953 -5.773502691896012E-1
998 995 -5.773502691896406E-1
998 998 3.464101615137754
998 999 -5.773502691896432E-1
998 1043 -5.773502691896218E-1
998 1047 -5.773502691896208E-1
999 953 -5.773502691896348E-1
999 954 -5.773502691895978E-1
999 998 -5.773502691896432E-1
999 999 3.464101615137755
999 1000 -5.773502691896474E-1
999 1047 -5.773502691896051E-1
999 1048 -5.773502691896262E-1
1000 954 -5.773502691896304E-1
1000 958 -5.773502691896195E-1
1000 999 -5.773502691896474E-1
1000 1000 3.4641016151377544
1000 1003 -5.773502691896253E-1
1000 1048 -5.773502691896144E-1
1000 1049 -5.773502691896174E-1
1001 955 -3.011919969758965E-1
1001 956 -5.360303157702456E-1
1001 975 -6.191072459642125E-1
1001 1001 1.703348314325758
1001 1022 -2.4701875561540332E-1
1002 957 -5.776205431684711E-1
1002 979 -5.691479226200584E-1
1002 980 -5.759666307944843E-1
1002 1002 3.4647164265129713
1002 1026 -6.045902265798152E-1
1002 1027 -5.754386256751154E-1
1002 1051 -5.619524776750271E-1
1003 958 -5.770351574843143E-1
1003 981 -5.775238181976048E-1
1003 1000 -5.773502691896253E-1
1003 1003 3.464101821910917
1003 1028 -5.774920386601085E-1
1003 1049 -5.773502691896358E-1
1003 1052 -5.773502691896284E-1
1004 959 -5.773450039278094E-1
1004 960 -5.772289007944248E-1
1004 982 -5.773592840675572E-1
1004 1004 3.4641017336458795
1004 1005 -5.777170679738659E-1
1004 1029 -5.773357324772649E-1
1004 1053 -5.771157444049575E-1
1005 960 -5.767121044969896E-1
1005 961 -5.771326254015723E-1
1005 1004 -5.777170679738659E-1
1005 1005 3.4641039943644563
1005 1006 -5.788595057061375E-1
1005 1053 -5.77576348627816E-1
1005 1054 -5.761063421580752E-1
1006 961 -5.754310140605533E-1
1006 962 -5.759191431396835E-1
1006 1005 -5.788595057061375E-1
1006 1006 3.4641369195050222
1006 1007 -5.832521840746872E-1
1006 1054 -5.783511930747529E-1
1006 1055 -5.723238794492075E-1
1007 962 -5.707793006439639E-1
1007 963 -5.632732026438179E-1
1007 1006 -5.832521840746872E-1
1007 1007 3.4657351349616237
1007 1008 -6.172701234298488E-1
1007 1055 -5.838136392059743E-1
1007 1056 -5.473466849633316E-1
1008 963 -5.995166729231041E-1
1008 964 -4.580298009099588E-1
1008 1007 -6.172701234298488E-1
1008 1008 3.533870677692987
1008 1020 -8.46799995712145E-1
1008 1056 -6.23866762401189E-1
1008 1057 -3.8838732231674167E-1
1009 965 -5.77350258130851E-1
1009 966 -5.773502708420204E-1
1009 985 -5.773502726769322E-1
1009 1009 3.464101615137755
1009 1010 -5.773502698852956E-1
1009 1032 -5.773502753652769E-1
1009 1058 -5.773502682373788E-1
1010 966 -5.336597701831822E-1
1010 968 -6.311299829381423E-1
1010 1009 -5.773502698852956E-1
1010 1010 3.467742674300576
1010 1012 -5.956912702237451E-1
1010 1058 -5.773502696453356E-1
1010 1059 -5.525611114248754E-1
1011 967 -2.01303052056094E-1
1011 970 -5.662141873154181E-1
1011 1011 1.7131915115204575
1011 1014 -6.827859826373004E-1
1011 1060 -2.628882895116449E-1
1012 968 -4.4949322306174916E-1
1012 969 -7.993217306734607E-1
1012 1010 -5.956912702237451E-1
1012 1012 3.515035131469199
1012 1013 -4.216318379882487E-1
1012 1059 -6.130864609463049E-1
1012 1061 -6.358106085756903E-1
1013 969 -3.6912733216114096E-1
1013 986 -6.901705119152179E-1
1013 1012 -4.216318379882487E-1
1013 1013 3.422041883874063
1013 1014 -5.023300335422465E-1
1013 1061 -5.870531471406304E-1
1013 1062 -3.6509254964661364E-1
1013 1077 -4.866364714799654E-1
1014 970 -4.9483669656198354E-1
1014 986 -6.477193707076442E-1
1014 1011 -6.827859826373004E-1
1014 1013 -5.023300335422465E-1
1014 1014 3.512199991089032
1014 1060 -4.802335223600982E-1
1014 1062 -7.042943852797587E-1
1015 971 -3.116569971209213E-1
1015 987 -6.368353353709016E-1
1015 1015 1.9117117936064163
1015 1033 -6.075589472543766E-1
1015 1044 -3.556605138602166E-1
1016 942 -9.025386630137908E-1
1016 987 -5.129281137261054E-1
1016 988 -7.721482099585877E-1
1016 1016 3.7445112223969117
1016 1034 -9.479133370871757E-1
1016 1035 -6.08982898611252E-1
1017 972 -2.1108150813656207E-1
1017 996 -6.845506709637813E-1
1017 1017 3.4689106481851066
1017 1018 -6.129372562745292E-1
1017 1033 -3.085519459578898E-1
1017 1044 -6.036834394443717E-1
1017 1064 -4.640979374751031E-1
1017 1089 -5.840078899328696E-1
1018 972 -9.895431019795298E-1
1018 973 -3.481945553752315E-1
1018 1017 -6.129372562745292E-1
1018 1018 3.7865210218346927
1018 1045 -8.831642200477514E-1
1018 1064 -9.526818881576506E-1
1019 973 -7.048628082090009E-1
1019 997 -7.958886004256855E-1
1019 1019 3.646407277866739
1019 1045 -7.278202210625516E-1
1019 1046 -7.13260869507398E-1
1019 1065 -7.045747786621028E-1
1020 964 -4.100554481287083E-1
1020 997 -9.609304774546609E-1
1020 1008 -8.46799995712145E-1
1020 1020 3.730960939921272
1020 1046 -6.711542991710586E-1
1020 1057 -8.420207194546991E-1
1021 974 -8.338247242287392E-1
1021 975 -4.577635582751979E-1
1021 976 -4.309150191861705E-1
1021 1021 3.523266469165001
1021 1022 -5.905188533921424E-1
1021 1050 -6.312625838207817E-1
1021 1066 -5.789817302619698E-1
1022 975 -6.042899226318923E-1
1022 1001 -2.4701875561540332E-1
1022 1021 -5.905188533921424E-1
1022 1022 1.7018985251604208
1022 1066 -2.60070993520983E-1
1023 976 -5.984904413120065E-1
1023 977 -8.935556241920134E-1
1023 1023 3.6852307963094675
1023 1024 -5.51042013054154E-1
1023 1050 -8.35149779459321E-1
1023 1067 -8.069929382919729E-1
1024 977 -3.6600179150833545E-1
1024 978 -5.538442406025481E-1
1024 1023 -5.51042013054154E-1
1024 1024 3.4081986005401537
1024 1025 -4.435997527261291E-1
1024 1067 -5.365462980470587E-1
1024 1068 -5.755120117816523E-1
1024 1097 -3.816524928202761E-1
1025 978 -5.660053287639055E-1
1025 979 -6.700736090231566E-1
1025 1024 -4.435997527261291E-1
1025 1025 3.5407064330258304
1025 1026 -5.767460539849583E-1
1025 1068 -8.741223667131032E-1
1025 1069 -4.1015932181457737E-1
1026 979 -5.194523384331278E-1
1026 1002 -6.045902265798152E-1
1026 1025 -5.767460539849583E-1
1026 1026 3.4710394987735915
1026 1051 -5.529717812452494E-1
1026 1069 -6.534734998839451E-1
1026 1070 -5.638055986464959E-1
1027 980 -5.802340297210824E-1
1027 981 -5.806797450000829E-1
1027 1002 -5.754386256751154E-1
1027 1027 3.464335605300479
1027 1028 -5.65950112199046E-1
1027 1051 -5.719054871719198E-1
1027 1071 -5.901276055332327E-1
1028 981 -5.751334688788845E-1
1028 1003 -5.774920386601085E-1
1028 1027 -5.65950112199046E-1
1028 1028 3.464418412857176
1028 1052 -5.682625597630624E-1
1028 1071 -5.935362942607088E-1
1028 1072 -5.840439390953659E-1
1029 982 -5.773487667518857E-1
1029 983 -5.77351491788263E-1
1029 1004 -5.773357324772649E-1
1029 1029 3.464101616040682
1029 1030 -5.773502348187837E-1
1029 1053 -5.773839120015017E-1
1029 1073 -5.77331478202983E-1
1030 983 -5.773498150126426E-1
1030 984 -5.77350547449963E-1
1030 1029 -5.773502348187837E-1
1030 1030 3.464101615138526
1030 1031 -5.773503330199734E-1
1030 1073 -5.773508068384339E-1
1030 1074 -5.773498779987294E-1
1031 984 -5.77350148592584E-1
1031 985 -5.773503507317885E-1
1031 1030 -5.773503330199734E-1
1031 1031 3.4641016151377877
1031 1032 -5.773502743867758E-1
1031 1074 -5.773502966397326E-1
1031 1075 -5.77350211766933E-1
1032 985 -5.773502246560023E-1
1032 1009 -5.773502753652769E-1
1032 1031 -5.773502743867758E-1
1032 1032 3.464101615137757
1032 1058 -5.773502681901559E-1
1032 1075 -5.773503054277793E-1
1032 1076 -5.773502671117665E-1
1033 987 -2.9317370488007527E-1
1033 1015 -6.075589472543766E-1
1033 1017 -3.085519459578898E-1
1033 1033 3.4666343286497034
1033 1044 -6.295201028260073E-1
1033 1063 -5.172037910682752E-1
1033 1078 -5.856894797733202E-1
1033 1089 -5.249363568897589E-1
1034 987 -6.602629103287784E-1
1034 1016 -9.479133370871757E-1
1034 1034 3.727771423529861
1034 1035 -5.8739368430235E-1
1034 1063 -6.449198277212116E-1
1034 1079 -8.872816640903454E-1
1035 988 -4.417876362911584E-1
1035 1016 -6.08982898611252E-1
1035 1034 -5.8739368430235E-1
1035 1035 3.4416144623006586
1035 1036 -4.365515729452305E-1
1035 1079 -3.250025884106508E-1
1035 1080 -5.811122544228196E-1
1035 1110 -4.6078382731719747E-1
1036 988 -7.005042356204709E-1
1036 989 -6.22405465244277E-1
1036 1035 -4.365515729452305E-1
1036 1036 3.485168358599649
1036 1037 -5.305543497321512E-1
1036 1080 -6.177516055322738E-1
1036 1081 -5.774011295252458E-1
1037 989 -6.507022923376313E-1
1037 990 -5.553086806573846E-1
1037 1036 -5.305543497321512E-1
1037 1037 3.46895518208831
1037 1038 -5.7806100040635E-1
1037 1081 -5.771661883897523E-1
1037 1082 -5.771626705650409E-1
1038 990 -5.769568776357342E-1
1038 991 -5.753946948405586E-1
1038 1037 -5.7806100040635E-1
1038 1038 3.464108489540453
1038 1039 -5.799570539057912E-1
1038 1082 -5.769732860722745E-1
1038 1083 -5.767655766797448E-1
1039 991 -5.741092245481243E-1
1039 992 -5.783492901577986E-1
1039 1038 -5.799570539057912E-1
1039 1039 3.464116733273229
1039 1040 -5.790049867719091E-1
1039 1083 -5.7734184104776E-1
1039 1084 -5.75354336841846E-1
1040 992 -5.710805405387231E-1
1040 993 -5.808678993982178E-1
1040 1039 -5.790049867719091E-1
1040 1040 3.464133528380898
1040 1041 -5.773502691897392E-1
1040 1084 -5.784795632926647E-1
1040 1085 -5.773502691896437E-1
1041 993 -5.773502691896716E-1
1041 994 -5.773502691896241E-1
1041 1040 -5.773502691897392E-1
1041 1041 3.4641016151377535
1041 1042 -5.773502691896781E-1
1041 1085 -5.77350269189318E-1
1041 1086 -5.773502691897231E-1
1042 994 -5.773502691896222E-1
1042 995 -5.773502691896126E-1
1042 1041 -5.773502691896781E-1
1042 1042 3.464101615137755
1042 1043 -5.773502691896748E-1
1042 1086 -5.77350269189532E-1
1042 1087 -5.77350269189635E-1
1043 995 -5.773502691896243E-1
1043 998 -5.773502691896218E-1
1043 1042 -5.773502691896748E-1
1043 1043 3.4641016151377553
1043 1047 -5.77350269189649E-1
1043 1087 -5.773502691895195E-1
1043 1088 -5.773502691896654E-1
1044 996 -3.2485937266059733E-1
1044 1015 -3.556605138602166E-1
1044 1017 -6.036834394443717E-1
1044 1033 -6.295201028260073E-1
1044 1044 1.913723428791193
1045 973 -4.489612766586359E-1
1045 1018 -8.831642200477514E-1
1045 1019 -7.278202210625516E-1
1045 1045 3.5680721443696655
1045 1064 -3.317426359784177E-1
1045 1065 -5.752182760848141E-1
1045 1090 -6.011655145374948E-1
1046 997 -1.9996748342405207E-1
1046 1019 -7.13260869507398E-1
1046 1020 -6.711542991710586E-1
1046 1046 3.467854835429125
1046 1057 -5.4103777203271E-1
1046 1065 -4.7093460353227456E-1
1046 1091 -4.1897414870113925E-1
1046 1092 -4.5252565906049236E-1
1047 998 -5.773502691896208E-1
1047 999 -5.773502691896051E-1
1047 1043 -5.77350269189649E-1
1047 1047 3.4641016151377544
1047 1048 -5.773502691896335E-1
1047 1088 -5.773502691896019E-1
1047 1093 -5.773502691896444E-1
1048 999 -5.773502691896262E-1
1048 1000 -5.773502691896144E-1
1048 1047 -5.773502691896335E-1
1048 1048 3.464101615137754
1048 1049 -5.773502691896271E-1
1048 1093 -5.773502691896228E-1
1048 1094 -5.773502691896305E-1
1049 1000 -5.773502691896174E-1
1049 1003 -5.773502691896358E-1
1049 1048 -5.773502691896271E-1
1049 1049 3.4641016151377544
1049 1052 -5.773502691896248E-1
1049 1094 -5.773502691896264E-1
1049 1095 -5.773502691896228E-1
1050 976 -4.28501005976541E-1
1050 1021 -6.312625838207817E-1
1050 1023 -8.35149779459321E-1
1050 1050 3.528288051721065
1050 1066 -5.977908042700206E-1
1050 1067 -4.429232634641996E-1
1050 1096 -5.926606147302018E-1
1051 1002 -5.619524776750271E-1
1051 1026 -5.529717812452494E-1
1051 1027 -5.719054871719198E-1
1051 1051 3.47374609442899
1051 1070 -6.060462402268597E-1
1051 1071 -5.056573327095795E-1
1051 1098 -6.752127754003548E-1
1052 1003 -5.773502691896284E-1
1052 1028 -5.682625597630624E-1
1052 1049 -5.773502691896248E-1
1052 1052 3.4642830901214774
1052 1072 -5.912219774669067E-1
1052 1095 -5.773502691896215E-1
1052 1099 -5.727477453226342E-1
1053 1004 -5.771157444049575E-1
1053 1005 -5.77576348627816E-1
1053 1029 -5.773839120015017E-1
1053 1053 3.464101720149425
1053 1054 -5.775068178862468E-1
1053 1073 -5.773640097794136E-1
1053 1100 -5.771548874494888E-1
1054 1005 -5.761063421580752E-1
1054 1006 -5.783511930747529E-1
1054 1053 -5.775068178862468E-1
1054 1054 3.464104280712702
1054 1055 -5.783975425532087E-1
1054 1100 -5.77495920892336E-1
1054 1101 -5.762464641480822E-1
1055 1006 -5.723238794492075E-1
1055 1007 -5.838136392059743E-1
1055 1054 -5.783975425532087E-1
1055 1055 3.4641467187758566
1055 1056 -5.736079149014517E-1
1055 1101 -5.787237224965113E-1
1055 1102 -5.77280020169503E-1
1056 1007 -5.473466849633316E-1
1056 1008 -6.23866762401189E-1
1056 1055 -5.736079149014517E-1
1056 1056 3.4659397702126844
1056 1057 -5.657499096801912E-1
1056 1102 -5.780208469078421E-1
1056 1103 -5.77347651358679E-1
1057 1008 -3.8838732231674167E-1
1057 1020 -8.420207194546991E-1
1057 1046 -5.4103777203271E-1
1057 1056 -5.657499096801912E-1
1057 1057 3.5343275536563787
1057 1092 -6.197815194912222E-1
1057 1103 -5.773503106808148E-1
1058 1009 -5.773502682373788E-1
1058 1010 -5.773502696453356E-1
1058 1032 -5.773502681901559E-1
1058 1058 3.4641016151377544
1058 1059 -5.773502692297446E-1
1058 1076 -5.773502716611432E-1
1058 1104 -5.773502681739963E-1
1059 1010 -5.525611114248754E-1
1059 1012 -6.130864609463049E-1
1059 1058 -5.773502692297446E-1
1059 1059 3.4653000290038958
1059 1061 -5.716951524504579E-1
1059 1104 -5.77350269247402E-1
1059 1105 -5.732567657051111E-1
1060 1011 -2.628882895116449E-1
1060 1014 -4.802335223600982E-1
1060 1060 1.7070907260821602
1060 1062 -6.623866209052374E-1
1060 1106 -3.015822933051797E-1
1061 1012 -6.358106085756903E-1
1061 1013 -5.870531471406304E-1
1061 1059 -5.716951524504579E-1
1061 1061 3.4735162720285286
1061 1077 -5.664119279726009E-1
1061 1105 -5.825263172359707E-1
1061 1107 -5.300191186531786E-1
1062 1013 -3.6509254964661364E-1
1062 1014 -7.042943852797587E-1
1062 1060 -6.623866209052374E-1
1062 1062 3.527398237604137
1062 1077 -7.705404769019293E-1
1062 1106 -4.3983101952386205E-1
1062 1108 -5.852531853467353E-1
1063 987 -4.8911291269069385E-1
1063 1033 -5.172037910682752E-1
1063 1034 -6.449198277212116E-1
1063 1063 3.661893442024864
1063 1078 -9.611277785210004E-1
1063 1079 -7.283662221320966E-1
1063 1109 -3.2116290989158647E-1
1064 1017 -4.640979374751031E-1
1064 1018 -9.526818881576506E-1
1064 1045 -3.317426359784177E-1
1064 1064 3.574180473102203
1064 1089 -6.111532121778926E-1
1064 1090 -6.342935179149123E-1
1064 1111 -5.802112813982265E-1
1065 1019 -7.045747786621028E-1
1065 1045 -5.752182760848141E-1
1065 1046 -4.7093460353227456E-1
1065 1065 3.50344132382884
1065 1090 -5.27483390779705E-1
1065 1091 -6.582831741635833E-1
1065 1112 -5.669471006063604E-1
1066 1021 -5.789817302619698E-1
1066 1022 -2.60070993520983E-1
1066 1050 -5.977908042700206E-1
1066 1066 1.7004904977909052
1066 1096 -2.6364696973793195E-1
1067 1023 -8.069929382919729E-1
1067 1024 -5.365462980470587E-1
1067 1050 -4.429232634641996E-1
1067 1067 3.513341128692957
1067 1096 -5.549056720772507E-1
1067 1097 -6.35723779574988E-1
1067 1113 -5.362491772374866E-1
1068 1024 -5.755120117816523E-1
1068 1025 -8.741223667131032E-1
1068 1068 3.6711160969871535
1068 1069 -6.734203128287543E-1
1068 1097 -8.756425458091255E-1
1068 1114 -6.724188598545178E-1
1069 1025 -4.1015932181457737E-1
1069 1026 -6.534734998839451E-1
1069 1068 -6.734203128287543E-1
1069 1069 3.5052313010692173
1069 1070 -6.35699291659462E-1
1069 1114 -5.860004889965289E-1
1069 1115 -5.464783858859497E-1
1070 1026 -5.638055986464959E-1
1070 1051 -6.060462402268597E-1
1070 1069 -6.35699291659462E-1
1070 1070 3.512438515313548
1070 1098 -3.935612208744263E-1
1070 1115 -5.041333080545649E-1
1070 1116 -8.09192855851739E-1
1071 1027 -5.901276055332327E-1
1071 1028 -5.935362942607088E-1
1071 1051 -5.056573327095795E-1
1071 1071 3.472295929017085
1071 1072 -5.360594415279304E-1
1071 1098 -6.563775391223967E-1
1071 1117 -5.905377158632366E-1
1072 1028 -5.840439390953659E-1
1072 1052 -5.912219774669067E-1
1072 1071 -5.360594415279304E-1
1072 1072 3.466785678385676
1072 1099 -5.694987173052926E-1
1072 1117 -6.31091275383493E-1
1072 1118 -5.548703276066875E-1
1073 1029 -5.77331478202983E-1
1073 1030 -5.773508068384339E-1
1073 1053 -5.773640097794136E-1
1073 1073 3.4641016158842524
1073 1074 -5.773504402222573E-1
1073 1100 -5.773699163552101E-1
1073 1119 -5.773349644859551E-1
1074 1030 -5.773498779987294E-1
1074 1031 -5.773502966397326E-1
1074 1073 -5.773504402222573E-1
1074 1074 3.464101615137853
1074 1075 -5.773503107378064E-1
1074 1119 -5.773504246057026E-1
1074 1120 -5.773502649336248E-1
1075 1031 -5.77350211766933E-1
1075 1032 -5.773503054277793E-1
1075 1074 -5.773503107378064E-1
1075 1075 3.464101615137759
1075 1076 -5.77350268266894E-1
1075 1120 -5.773502638286789E-1
1075 1121 -5.773502551096671E-1
1076 1032 -5.773502671117665E-1
1076 1058 -5.773502716611432E-1
1076 1075 -5.77350268266894E-1
1076 1076 3.4641016151377544
1076 1104 -5.773502689582573E-1
1076 1121 -5.773502725359112E-1
1076 1122 -5.773502666037829E-1
1077 1013 -4.866364714799654E-1
1077 1061 -5.664119279726009E-1
1077 1062 -7.705404769019293E-1
1077 1077 3.5009450820768993
1077 1107 -6.66871339132594E-1
1077 1108 -5.095204399414586E-1
1077 1123 -5.009644266483506E-1
1078 1033 -5.856894797733202E-1
1078 1063 -9.611277785210004E-1
1078 1078 3.739940851082349
1078 1089 -8.646088775641958E-1
1078 1109 -4.271446414489598E-1
1078 1124 -9.01370073774873E-1
1079 1034 -8.872816640903454E-1
1079 1035 -3.250025884106508E-1
1079 1063 -7.283662221320966E-1
1079 1079 3.7920250751164715
1079 1109 -8.747978999930824E-1
1079 1110 -9.765767004902962E-1
1080 1035 -5.811122544228196E-1
1080 1036 -6.177516055322738E-1
1080 1080 3.4665291608404796
1080 1081 -5.786480055478553E-1
1080 1110 -5.551980920310234E-1
1080 1125 -5.809188105520116E-1
1080 1126 -5.529003927544955E-1
1081 1036 -5.774011295252458E-1
1081 1037 -5.771661883897523E-1
1081 1080 -5.786480055478553E-1
1081 1081 3.4641058099286326
1081 1082 -5.775422122425342E-1
1081 1125 -5.751871828906194E-1
1081 1127 -5.781610913326254E-1
1082 1037 -5.771626705650409E-1
1082 1038 -5.769732860722745E-1
1082 1081 -5.775422122425342E-1
1082 1082 3.4641019173228287
1082 1083 -5.77967992341759E-1
1082 1127 -5.773215316868683E-1
1082 1128 -5.771342244143514E-1
1083 1038 -5.767655766797448E-1
1083 1039 -5.7734184104776E-1
1083 1082 -5.77967992341759E-1
1083 1083 3.464102735070322
1083 1084 -5.778766912198354E-1
1083 1128 -5.77240281651543E-1
1083 1129 -5.769103521296793E-1
1084 1039 -5.75354336841846E-1
1084 1040 -5.784795632926647E-1
1084 1083 -5.778766912198354E-1
1084 1084 3.464104877576526
1084 1085 -5.773502691902022E-1
1084 1129 -5.776833871630969E-1
1084 1130 -5.773606298688807E-1
1085 1040 -5.773502691896437E-1
1085 1041 -5.77350269189318E-1
1085 1084 -5.773502691902022E-1
1085 1085 3.464101615137754
1085 1086 -5.773502691902088E-1
1085 1130 -5.773502691887515E-1
1085 1131 -5.773502691896304E-1
1086 1041 -5.773502691897231E-1
1086 1042 -5.77350269189532E-1
1086 1085 -5.773502691902088E-1
1086 1086 3.464101615137755
1086 1087 -5.773502691898618E-1
1086 1131 -5.773502691883566E-1
1086 1132 -5.773502691900723E-1
1087 1042 -5.77350269189635E-1
1087 1043 -5.773502691895195E-1
1087 1086 -5.773502691898618E-1
1087 1087 3.464101615137755
1087 1088 -5.773502691896645E-1
1087 1132 -5.773502691892367E-1
1087 1133 -5.773502691898373E-1
1088 1043 -5.773502691896654E-1
1088 1047 -5.773502691896019E-1
1088 1087 -5.773502691896645E-1
1088 1088 3.4641016151377553
1088 1093 -5.773502691896193E-1
1088 1133 -5.773502691894852E-1
1088 1134 -5.77350269189719E-1
1089 1017 -5.840078899328696E-1
1089 1033 -5.249363568897589E-1
1089 1064 -6.111532121778926E-1
1089 1078 -8.646088775641958E-1
1089 1089 3.561747949859508
1089 1111 -6.051919612223808E-1
1089 1124 -3.7184965207241033E-1
1090 1045 -6.011655145374948E-1
1090 1064 -6.342935179149123E-1
1090 1065 -5.27483390779705E-1
1090 1090 3.4690364527676927
1090 1111 -5.420780471179839E-1
1090 1112 -5.917639492546771E-1
1090 1135 -5.722520331629195E-1
1091 1046 -4.1897414870113925E-1
1091 1065 -6.582831741635833E-1
1091 1091 3.4898138819632143
1091 1092 -6.801014480105347E-1
1091 1112 -5.789789405583343E-1
1091 1136 -5.78146989278665E-1
1091 1137 -5.753291812509578E-1
1092 1046 -4.5252565906049236E-1
1092 1057 -6.197815194912222E-1
1092 1091 -6.801014480105347E-1
1092 1092 3.4837428697275823
1092 1103 -5.773786208513632E-1
1092 1136 -5.766424170599777E-1
1092 1138 -5.77313205253992E-1
1093 1047 -5.773502691896444E-1
1093 1048 -5.773502691896228E-1
1093 1088 -5.773502691896193E-1
1093 1093 3.4641016151377544
1093 1094 -5.77350269189622E-1
1093 1134 -5.773502691896137E-1
1093 1139 -5.773502691896323E-1
1094 1048 -5.773502691896305E-1
1094 1049 -5.773502691896264E-1
1094 1093 -5.77350269189622E-1
1094 1094 3.4641016151377553
1094 1095 -5.773502691896224E-1
1094 1139 -5.773502691896253E-1
1094 1140 -5.773502691896288E-1
1095 1049 -5.773502691896228E-1
1095 1052 -5.773502691896215E-1
1095 1094 -5.773502691896224E-1
1095 1095 3.4641016151377544
1095 1099 -5.773502691896317E-1
1095 1140 -5.773502691896324E-1
1095 1141 -5.77350269189624E-1
1096 1050 -5.926606147302018E-1
1096 1066 -2.6364696973793195E-1
1096 1067 -5.549056720772507E-1
1096 1096 1.6998883911401967
1096 1113 -2.886751345948123E-1
1097 1024 -3.816524928202761E-1
1097 1067 -6.35723779574988E-1
1097 1068 -8.756425458091255E-1
1097 1097 3.540037430076727
1097 1113 -6.265928322534979E-1
1097 1114 -4.465669527122978E-1
1097 1142 -5.738588269065414E-1
1098 1051 -6.752127754003548E-1
1098 1070 -3.935612208744263E-1
1098 1071 -6.563775391223967E-1
1098 1098 3.5087605643040396
1098 1116 -7.349364386845669E-1
1098 1117 -4.3468462093248955E-1
1098 1143 -6.139879692898053E-1
1099 1052 -5.727477453226342E-1
1099 1072 -5.694987173052926E-1
1099 1095 -5.773502691896317E-1
1099 1099 3.464308102799521
1099 1118 -5.951513824924793E-1
1099 1141 -5.773502691896416E-1
1099 1144 -5.722097192998418E-1
1100 1053 -5.771548874494888E-1
1100 1054 -5.77495920892336E-1
1100 1073 -5.773699163552101E-1
1100 1100 3.4641017148448277
1100 1101 -5.775845305640406E-1
1100 1119 -5.773697316767561E-1
1100 1145 -5.77126727906996E-1
1101 1054 -5.762464641480822E-1
1101 1055 -5.787237224965113E-1
1101 1100 -5.775845305640406E-1
1101 1101 3.4641037238572996
1101 1102 -5.766215980575919E-1
1101 1145 -5.776563796615024E-1
1101 1146 -5.772710289295713E-1
1102 1055 -5.77280020169503E-1
1102 1056 -5.780208469078421E-1
1102 1101 -5.766215980575919E-1
1102 1102 3.464102600769636
1102 1103 -5.772972470245001E-1
1102 1146 -5.775406091549944E-1
1102 1147 -5.773422794552041E-1
1103 1056 -5.77347651358679E-1
1103 1057 -5.773503106808148E-1
1103 1092 -5.773786208513632E-1
1103 1102 -5.772972470245001E-1
1103 1103 3.4641016190696083
1103 1138 -5.773255861881541E-1
1103 1147 -5.774022029660966E-1
1104 1058 -5.773502681739963E-1
1104 1059 -5.77350269247402E-1
1104 1076 -5.773502689582573E-1
1104 1104 3.4641016151377544
1104 1105 -5.773502692184365E-1
1104 1122 -5.773502705667184E-1
1104 1148 -5.773502689729444E-1
1105 1059 -5.732567657051111E-1
1105 1061 -5.825263172359707E-1
1105 1104 -5.773502692184365E-1
1105 1105 3.4661701408859913
1105 1107 -6.136390902540104E-1
1105 1148 -5.773502692067749E-1
1105 1149 -5.420474292656876E-1
1106 1060 -3.015822933051797E-1
1106 1062 -4.3983101952386205E-1
1106 1106 1.7139291261490692
1106 1108 -6.997282499874258E-1
1106 1150 -2.727875633326016E-1
1107 1061 -5.300191186531786E-1
1107 1077 -6.66871339132594E-1
1107 1105 -6.136390902540104E-1
1107 1107 3.4779187168398726
1107 1123 -5.58051498118093E-1
1107 1149 -6.268082607005301E-1
1107 1151 -4.8252940998146643E-1
1108 1062 -5.852531853467353E-1
1108 1077 -5.095204399414586E-1
1108 1106 -6.997282499874258E-1
1108 1108 3.4857803233164573
1108 1123 -6.899548551570932E-1
1108 1150 -5.082735218470391E-1
1108 1152 -4.9305007103670506E-1
1109 1063 -3.2116290989158647E-1
1109 1078 -4.271446414489598E-1
1109 1079 -8.747978999930824E-1
1109 1109 3.488210912709182
1109 1110 -3.0569618150948036E-1
1109 1124 -4.5616421028054643E-1
1109 1153 -5.857891765905126E-1
1109 1154 -5.174558929950135E-1
1110 1035 -4.6078382731719747E-1
1110 1079 -9.765767004902962E-1
1110 1080 -5.551980920310234E-1
1110 1109 -3.0569618150948036E-1
1110 1110 3.5986113463295637
1110 1126 -6.356040173242508E-1
1110 1154 -6.647525276573152E-1
1111 1064 -5.802112813982265E-1
1111 1089 -6.051919612223808E-1
1111 1090 -5.420780471179839E-1
1111 1111 3.466693561389527
1111 1124 -6.051343298310945E-1
1111 1135 -5.942597703777233E-1
1111 1155 -5.398181714421177E-1
1112 1065 -5.669471006063604E-1
1112 1090 -5.917639492546771E-1
1112 1091 -5.789789405583343E-1
1112 1112 3.464300490066971
1112 1135 -5.70459673831929E-1
1112 1137 -5.809181826273471E-1
1112 1156 -5.752326431883229E-1
1113 1067 -5.362491772374866E-1
1113 1096 -2.886751345948123E-1
1113 1097 -6.265928322534979E-1
1113 1113 1.7025433958098848
1113 1142 -2.5102625172408793E-1
1114 1068 -6.724188598545178E-1
1114 1069 -5.860004889965289E-1
1114 1097 -4.465669527122978E-1
1114 1114 3.512845077776321
1114 1115 -4.7706237720454114E-1
1114 1142 -6.372282757043181E-1
1114 1157 -6.935681233041173E-1
1115 1069 -5.464783858859497E-1
1115 1070 -5.041333080545649E-1
1115 1114 -4.7706237720454114E-1
1115 1115 3.406116877655362
1115 1116 -3.516439874357447E-1
1115 1157 -4.3870180906181155E-1
1115 1158 -6.500727526268019E-1
1115 1186 -4.3802425738594863E-1
1116 1070 -8.09192855851739E-1
1116 1098 -7.349364386845669E-1
1116 1115 -3.516439874357447E-1
1116 1116 3.572508682759255
1116 1143 -4.629602065240461E-1
1116 1158 -8.218130619603956E-1
1116 1159 -3.9196213230276267E-1
1117 1071 -5.905377158632366E-1
1117 1072 -6.31091275383493E-1
1117 1098 -4.3468462093248955E-1
1117 1117 3.505897844706256
1117 1118 -5.485270762286147E-1
1117 1143 -8.174438178383303E-1
1117 1160 -4.836133384600919E-1
1118 1072 -5.548703276066875E-1
1118 1099 -5.951513824924793E-1
1118 1117 -5.485270762286147E-1
1118 1118 3.472542089103567
1118 1144 -5.818374404364269E-1
1118 1160 -6.831139390542627E-1
1118 1161 -5.090419232850955E-1
1119 1073 -5.773349644859551E-1
1119 1074 -5.773504246057026E-1
1119 1100 -5.773697316767561E-1
1119 1119 3.4641016155464732
1119 1120 -5.773502623474079E-1
1119 1145 -5.773516145138085E-1
1119 1162 -5.773446179168429E-1
1120 1074 -5.773502649336248E-1
1120 1075 -5.773502638286789E-1
1120 1119 -5.773502623474079E-1
1120 1120 3.4641016151377553
1120 1121 -5.77350277720619E-1
1120 1162 -5.773502879744379E-1
1120 1163 -5.77350258332987E-1
1121 1075 -5.773502551096671E-1
1121 1076 -5.773502725359112E-1
1121 1120 -5.77350277720619E-1
1121 1121 3.4641016151377553
1121 1122 -5.773502706986007E-1
1121 1163 -5.773502712275718E-1
1121 1164 -5.77350267845385E-1
1122 1076 -5.773502666037829E-1
1122 1104 -5.773502705667184E-1
1122 1121 -5.773502706986007E-1
1122 1122 3.4641016155713635
1122 1148 -5.773614575877956E-1
1122 1164 -5.773390818552224E-1
1122 1165 -5.77350268259244E-1
1123 1077 -5.009644266483506E-1
1123 1107 -5.58051498118093E-1
1123 1108 -6.899548551570932E-1
1123 1123 3.498552465218556
1123 1151 -7.206151515224375E-1
1123 1152 -5.622950528278958E-1
1123 1166 -4.66671480944686E-1
1124 1078 -9.01370073774873E-1
1124 1089 -3.7184965207241033E-1
1124 1109 -4.5616421028054643E-1
1124 1111 -6.051343298310945E-1
1124 1124 3.5498485406783633
1124 1153 -5.761414298443601E-1
1124 1155 -6.39188844875079E-1
1125 1080 -5.809188105520116E-1
1125 1081 -5.751871828906194E-1
1125 1125 3.4641481266950747
1125 1126 -5.764986268882368E-1
1125 1127 -5.771366585692599E-1
1125 1167 -5.797557630822174E-1
1125 1168 -5.746510847127293E-1
1126 1080 -5.529003927544955E-1
1126 1110 -6.356040173242508E-1
1126 1125 -5.764986268882368E-1
1126 1126 3.467583712517894
1126 1154 -5.315192127937058E-1
1126 1168 -5.844924458235006E-1
1126 1169 -5.86569016933704E-1
1127 1081 -5.781610913326254E-1
1127 1082 -5.773215316868683E-1
1127 1125 -5.771366585692599E-1
1127 1127 3.464103053140585
1127 1128 -5.77463577484191E-1
1127 1167 -5.766024874614245E-1
1127 1170 -5.774177066062165E-1
1128 1082 -5.771342244143514E-1
1128 1083 -5.77240281651543E-1
1128 1127 -5.77463577484191E-1
1128 1128 3.464101705668951
1128 1129 -5.776181599586163E-1
1128 1170 -5.772983064163766E-1
1128 1171 -5.773471557438729E-1
1129 1083 -5.769103521296793E-1
1129 1084 -5.776833871630969E-1
1129 1128 -5.776181599586163E-1
1129 1129 3.464101829054527
1129 1130 -5.772859642959537E-1
1129 1171 -5.773486770195488E-1
1129 1172 -5.772552884876316E-1
1130 1084 -5.773606298688807E-1
1130 1085 -5.773502691887515E-1
1130 1129 -5.772859642959537E-1
1130 1130 3.464101620364778
1130 1131 -5.77350269193093E-1
1130 1172 -5.774042186320772E-1
1130 1173 -5.773502691860224E-1
1131 1085 -5.773502691896304E-1
1131 1086 -5.773502691883566E-1
1131 1130 -5.77350269193093E-1
1131 1131 3.4641016151377544
1131 1132 -5.773502691898309E-1
1131 1173 -5.773502691839509E-1
1131 1174 -5.773502691928926E-1
1132 1086 -5.773502691900723E-1
1132 1087 -5.773502691892367E-1
1132 1131 -5.773502691898309E-1
1132 1132 3.4641016151377544
1132 1133 -5.773502691895749E-1
1132 1174 -5.773502691887062E-1
1132 1175 -5.773502691903335E-1
1133 1087 -5.773502691898373E-1
1133 1088 -5.773502691894852E-1
1133 1132 -5.773502691895749E-1
1133 1133 3.4641016151377553
1133 1134 -5.773502691895462E-1
1133 1175 -5.773502691894578E-1
1133 1176 -5.773502691898531E-1
1134 1088 -5.77350269189719E-1
1134 1093 -5.773502691896137E-1
1134 1133 -5.773502691895462E-1
1134 1134 3.464101615137755
1134 1139 -5.773502691896221E-1
1134 1176 -5.773502691896235E-1
1134 1177 -5.773502691896302E-1
1135 1090 -5.722520331629195E-1
1135 1111 -5.942597703777233E-1
1135 1112 -5.70459673831929E-1
1135 1135 3.4643388625825446
1135 1155 -5.735780325593385E-1
1135 1156 -5.83320979305145E-1
1135 1178 -5.704683733454889E-1
1136 1091 -5.78146989278665E-1
1136 1092 -5.766424170599777E-1
1136 1136 3.4641023625887817
1136 1137 -5.772239699619173E-1
1136 1138 -5.775033488675121E-1
1136 1179 -5.769263090418189E-1
1136 1180 -5.776593283788904E-1
1137 1091 -5.753291812509578E-1
1137 1112 -5.809181826273471E-1
1137 1136 -5.772239699619173E-1
1137 1137 3.4641119921509773
1137 1156 -5.757381148576005E-1
1137 1179 -5.782485122133821E-1
1137 1181 -5.766540312397725E-1
1138 1092 -5.77313205253992E-1
1138 1103 -5.773255861881541E-1
1138 1136 -5.775033488675121E-1
1138 1138 3.464101666253038
1138 1147 -5.773346256916658E-1
1138 1180 -5.771727743575199E-1
1138 1182 -5.774521258941935E-1
1139 1093 -5.773502691896323E-1
1139 1094 -5.773502691896253E-1
1139 1134 -5.773502691896221E-1
1139 1139 3.4641016151377544
1139 1140 -5.773502691896257E-1
1139 1177 -5.773502691896246E-1
1139 1183 -5.773502691896246E-1
1140 1094 -5.773502691896288E-1
1140 1095 -5.773502691896324E-1
1140 1139 -5.773502691896257E-1
1140 1140 3.4641016151377544
1140 1141 -5.773502691895955E-1
1140 1183 -5.773502691896455E-1
1140 1184 -5.773502691896265E-1
1141 1095 -5.77350269189624E-1
1141 1099 -5.773502691896416E-1
1141 1140 -5.773502691895955E-1
1141 1141 3.4641016151377553
1141 1144 -5.773502691896111E-1
1141 1184 -5.773502691896508E-1
1141 1185 -5.773502691896318E-1
1142 1097 -5.738588269065414E-1
1142 1113 -2.5102625172408793E-1
1142 1114 -6.372282757043181E-1
1142 1142 1.704062181079358
1142 1157 -2.4194882674441043E-1
1143 1098 -6.139879692898053E-1
1143 1116 -4.629602065240461E-1
1143 1117 -8.174438178383303E-1
1143 1143 3.544139542206892
1143 1159 -8.052074657138832E-1
1143 1160 -4.610528215855658E-1
1143 1187 -3.8348726125526145E-1
1144 1099 -5.722097192998418E-1
1144 1118 -5.818374404364269E-1
1144 1141 -5.773502691896111E-1
1144 1144 3.4643749650078792
1144 1161 -5.919993582429752E-1
1144 1185 -5.786415646808836E-1
1144 1188 -5.62336613158141E-1
1145 1100 -5.77126727906996E-1
1145 1101 -5.776563796615024E-1
1145 1119 -5.773516145138085E-1
1145 1145 3.4641017033419237
1145 1146 -5.773169919299467E-1
1145 1162 -5.773536818612153E-1
1145 1189 -5.772963074684547E-1
1146 1101 -5.772710289295713E-1
1146 1102 -5.775406091549944E-1
1146 1145 -5.773169919299467E-1
1146 1146 3.4641016635192954
1146 1147 -5.772538219916958E-1
1146 1189 -5.774049242704917E-1
1146 1190 -5.773142872425954E-1
1147 1102 -5.773422794552041E-1
1147 1103 -5.774022029660966E-1
1147 1138 -5.773346256916658E-1
1147 1146 -5.772538219916958E-1
1147 1147 3.4641016245042566
1147 1182 -5.773353396946541E-1
1147 1190 -5.774333547049397E-1
1148 1104 -5.773502689729444E-1
1148 1105 -5.773502692067749E-1
1148 1122 -5.773614575877956E-1
1148 1148 3.4641016162217424
1148 1149 -5.773502691912622E-1
1148 1165 -5.77316706254752E-1
1148 1191 -5.773726450082133E-1
1149 1105 -5.420474292656876E-1
1149 1107 -6.268082607005301E-1
1149 1148 -5.773502691912622E-1
1149 1149 3.468904162975006
1149 1151 -6.177145278665557E-1
1149 1191 -5.74953966264178E-1
1149 1192 -5.300297096867927E-1
1150 1106 -2.727875633326016E-1
1150 1108 -5.082735218470391E-1
1150 1150 1.705930986676333
1150 1152 -6.704799474257064E-1
1150 1193 -2.5438995407098597E-1
1151 1107 -4.8252940998146643E-1
1151 1123 -7.206151515224375E-1
1151 1149 -6.177145278665557E-1
1151 1151 3.5228195530376554
1151 1166 -7.262820824625766E-1
1151 1192 -6.1499841833824E-1
1151 1194 -3.6067996286637904E-1
1152 1108 -4.9305007103670506E-1
1152 1123 -5.622950528278958E-1
1152 1150 -6.704799474257064E-1
1152 1152 3.575712339179603
1152 1166 -9.062234491976633E-1
1152 1193 -6.498153191290148E-1
1152 1195 -2.938484995626177E-1
1153 1109 -5.857891765905126E-1
1153 1124 -5.761414298443601E-1
1153 1153 3.465814398833851
1153 1154 -5.752871718360737E-1
1153 1155 -5.472309615280315E-1
1153 1196 -6.047957323276496E-1
1153 1197 -5.765699267072236E-1
1154 1109 -5.174558929950135E-1
1154 1110 -6.647525276573152E-1
1154 1126 -5.315192127937058E-1
1154 1153 -5.752871718360737E-1
1154 1154 3.471498368257558
1154 1169 -5.88368385743523E-1
1154 1197 -5.941151772319269E-1
1155 1111 -5.398181714421177E-1
1155 1124 -6.39188844875079E-1
1155 1135 -5.735780325593385E-1
1155 1153 -5.472309615280315E-1
1155 1155 3.467506419232165
1155 1178 -5.953916944002082E-1
1155 1196 -5.722987144273899E-1
1156 1112 -5.752326431883229E-1
1156 1135 -5.83320979305145E-1
1156 1137 -5.757381148576005E-1
1156 1156 3.464130666658569
1156 1178 -5.73771782474777E-1
1156 1181 -5.787722997882354E-1
1156 1198 -5.772948470444885E-1
1157 1114 -6.935681233041173E-1
1157 1115 -4.3870180906181155E-1
1157 1142 -2.4194882674441043E-1
1157 1157 1.7217039807296388
1157 1186 -3.474852216192995E-1
1158 1115 -6.500727526268019E-1
1158 1116 -8.218130619603956E-1
1158 1158 3.6593000097581214
1158 1159 -6.198652504803608E-1
1158 1186 -8.714802526539178E-1
1158 1199 -6.960686920366449E-1
1159 1116 -3.9196213230276267E-1
1159 1143 -8.052074657138832E-1
1159 1158 -6.198652504803608E-1
1159 1159 3.5247117117921873
1159 1187 -6.001982494931768E-1
1159 1199 -6.597329478811922E-1
1159 1200 -4.4774566592081155E-1
1160 1117 -4.836133384600919E-1
1160 1118 -6.831139390542627E-1
1160 1143 -4.610528215855658E-1
1160 1160 3.5272686444212367
1160 1161 -6.503653029794869E-1
1160 1187 -8.478623681994382E-1
1160 1201 -4.0126087414239126E-1
1161 1118 -5.090419232850955E-1
1161 1144 -5.919993582429752E-1
1161 1160 -6.503653029794869E-1
1161 1161 3.4799199592323933
1161 1188 -5.979684419166296E-1
1161 1201 -6.601061174886783E-1
1161 1202 -4.70438815319528E-1
1162 1119 -5.773446179168429E-1
1162 1120 -5.773502879744379E-1
1162 1145 -5.773536818612153E-1
1162 1162 3.4641016153280146
1162 1163 -5.773502738221308E-1
1162 1189 -5.773625689554233E-1
1162 1203 -5.773401847979645E-1
1163 1120 -5.77350258332987E-1
1163 1121 -5.773502712275718E-1
1163 1162 -5.773502738221308E-1
1163 1163 3.464101615137755
1163 1164 -5.773502699617277E-1
1163 1203 -5.773502734835465E-1
1163 1204 -5.77350268309791E-1
1164 1121 -5.77350267845385E-1
1164 1122 -5.773390818552224E-1
1164 1163 -5.773502699617277E-1
1164 1164 3.46410161622182
1164 1165 -5.773838345155966E-1
1164 1204 -5.77350269532348E-1
1164 1205 -5.773278925115406E-1
1165 1122 -5.77350268259244E-1
1165 1148 -5.77316706254752E-1
1165 1164 -5.773838345155966E-1
1165 1165 3.464101630747713
1165 1191 -5.773838472022246E-1
1165 1205 -5.773167189451716E-1
1165 1206 -5.77350255570724E-1
1166 1123 -4.66671480944686E-1
1166 1151 -7.262820824625766E-1
1166 1152 -9.062234491976633E-1
1166 1166 3.70051278465819
1166 1194 -8.839861136281626E-1
1166 1195 -7.173496584251019E-1
1167 1125 -5.797557630822174E-1
1167 1127 -5.766024874614245E-1
1167 1167 3.4641058694991154
1167 1168 -5.75655733760333E-1
1167 1170 -5.773507419733312E-1
1167 1207 -5.775688754437589E-1
1167 1208 -5.771722677780498E-1
1168 1125 -5.746510847127293E-1
1168 1126 -5.844924458235006E-1
1168 1167 -5.75655733760333E-1
1168 1168 3.4641837050084505
1168 1169 -5.703280435119799E-1
1168 1208 -5.791373753998084E-1
1168 1209 -5.799190218000995E-1
1169 1126 -5.86569016933704E-1
1169 1154 -5.88368385743523E-1
1169 1168 -5.703280435119799E-1
1169 1169 3.4643184980028825
1169 1197 -5.665212790261077E-1
1169 1209 -5.763115328038801E-1
1169 1210 -5.762202399836878E-1
1170 1127 -5.774177066062165E-1
1170 1128 -5.772983064163766E-1
1170 1167 -5.773507419733312E-1
1170 1170 3.4641016493766736
1170 1171 -5.773573298031758E-1
1170 1207 -5.772761778145227E-1
1170 1211 -5.774013867630505E-1
1171 1128 -5.773471557438729E-1
1171 1129 -5.773486770195488E-1
1171 1170 -5.773573298031758E-1
1171 1171 3.464101617990035
1171 1172 -5.773783497501019E-1
1171 1211 -5.773431967806568E-1
1171 1212 -5.773269088926788E-1
1172 1129 -5.772552884876316E-1
1172 1130 -5.774042186320772E-1
1172 1171 -5.773783497501019E-1
1172 1172 3.4641016225549683
1172 1173 -5.773502692136672E-1
1172 1212 -5.773632272479019E-1
1172 1213 -5.773502692235887E-1
1173 1130 -5.773502691860224E-1
1173 1131 -5.773502691839509E-1
1173 1172 -5.773502692136672E-1
1173 1173 3.4641016151377544
1173 1174 -5.773502691932253E-1
1173 1213 -5.773502691544106E-1
1173 1214 -5.77350269206478E-1
1174 1131 -5.773502691928926E-1
1174 1132 -5.773502691887062E-1
1174 1173 -5.773502691932253E-1
1174 1174 3.4641016151377544
1174 1175 -5.773502691905856E-1
1174 1214 -5.773502691767909E-1
1174 1215 -5.773502691955539E-1
1175 1132 -5.773502691903335E-1
1175 1133 -5.773502691894578E-1
1175 1174 -5.773502691905856E-1
1175 1175 3.464101615137755
1175 1176 -5.773502691897111E-1
1175 1215 -5.773502691864529E-1
1175 1216 -5.773502691912138E-1
1176 1133 -5.773502691898531E-1
1176 1134 -5.773502691896235E-1
1176 1175 -5.773502691897111E-1
1176 1176 3.4641016151377544
1176 1177 -5.77350269189622E-1
1176 1216 -5.773502691889981E-1
1176 1217 -5.773502691899468E-1
1177 1134 -5.773502691896302E-1
1177 1139 -5.773502691896246E-1
1177 1176 -5.77350269189622E-1
1177 1177 3.464101615137755
1177 1183 -5.773502691896226E-1
1177 1217 -5.773502691896296E-1
1177 1218 -5.773502691896257E-1
1178 1135 -5.704683733454889E-1
1178 1155 -5.953916944002082E-1
1178 1156 -5.73771782474777E-1
1178 1178 3.46436834827827
1178 1196 -5.671829357497757E-1
1178 1198 -5.788852102104101E-1
1178 1219 -5.786683520976106E-1
1179 1136 -5.769263090418189E-1
1179 1137 -5.782485122133821E-1
1179 1179 3.4641022247120468
1179 1180 -5.772096142101717E-1
1179 1181 -5.769793645901713E-1
1179 1220 -5.77169361143761E-1
1179 1221 -5.775690635127415E-1
1180 1136 -5.776593283788904E-1
1180 1138 -5.771727743575199E-1
1180 1179 -5.772096142101717E-1
1180 1180 3.4641016932935482
1180 1182 -5.773047586933339E-1
1180 1221 -5.772911443160496E-1
1180 1222 -5.774640733375831E-1
1181 1137 -5.766540312397725E-1
1181 1156 -5.787722997882354E-1
1181 1179 -5.769793645901713E-1
1181 1181 3.464103557808587
1181 1198 -5.763275784299058E-1
1181 1220 -5.780657978313936E-1
1181 1223 -5.773044859291084E-1
1182 1138 -5.774521258941935E-1
1182 1147 -5.773353396946541E-1
1182 1180 -5.773047586933339E-1
1182 1182 3.4641016289519273
1182 1190 -5.77256155739004E-1
1182 1222 -5.773191807124403E-1
1182 1224 -5.774340682183012E-1
1183 1139 -5.773502691896246E-1
1183 1140 -5.773502691896455E-1
1183 1177 -5.773502691896226E-1
1183 1183 3.4641016151377553
1183 1184 -5.77350269189593E-1
1183 1218 -5.773502691896537E-1
1183 1225 -5.773502691896153E-1
1184 1140 -5.773502691896265E-1
1184 1141 -5.773502691896508E-1
1184 1183 -5.77350269189593E-1
1184 1184 3.464101615137755
1184 1185 -5.773502691896035E-1
1184 1225 -5.773502691896684E-1
1184 1226 -5.773502691896124E-1
1185 1141 -5.773502691896318E-1
1185 1144 -5.786415646808836E-1
1185 1184 -5.773502691896035E-1
1185 1185 3.4641983235873637
1185 1188 -5.835224249931087E-1
1185 1226 -5.773502691896559E-1
1185 1227 -5.699835263444796E-1
1186 1115 -4.3802425738594863E-1
1186 1157 -3.474852216192995E-1
1186 1158 -8.714802526539178E-1
1186 1186 1.7815654138865487
1186 1199 -1.2457568222738286E-1
1187 1143 -3.8348726125526145E-1
1187 1159 -6.001982494931768E-1
1187 1160 -8.478623681994382E-1
1187 1187 3.530909588974504
1187 1200 -7.283626694461807E-1
1187 1201 -4.7726144840057927E-1
1187 1228 -4.9373759217986785E-1
1188 1144 -5.62336613158141E-1
1188 1161 -5.979684419166296E-1
1188 1185 -5.835224249931087E-1
1188 1188 3.468473496413993
1188 1202 -5.828690482341318E-1
1188 1227 -6.304324126350905E-1
1188 1229 -5.11344555476891E-1
1189 1145 -5.772963074684547E-1
1189 1146 -5.774049242704917E-1
1189 1162 -5.773625689554233E-1
1189 1189 3.4641016196238352
1189 1190 -5.773677651822806E-1
1189 1203 -5.773615133980127E-1
1189 1230 -5.773085403491727E-1
1190 1146 -5.773142872425954E-1
1190 1147 -5.774333547049397E-1
1190 1182 -5.77256155739004E-1
1190 1189 -5.773677651822806E-1
1190 1190 3.4641016253538757
1190 1224 -5.773220574359919E-1
1190 1230 -5.774080050490645E-1
1191 1148 -5.773726450082133E-1
1191 1149 -5.74953966264178E-1
1191 1165 -5.773838472022246E-1
1191 1191 3.464151293105285
1191 1192 -5.850407653255947E-1
1191 1206 -5.767578002662095E-1
1191 1231 -5.726422690388655E-1
1192 1149 -5.300297096867927E-1
1192 1151 -6.1499841833824E-1
1192 1191 -5.850407653255947E-1
1192 1192 3.468426357815889
1192 1194 -6.194626855690384E-1
1192 1231 -5.805410882813082E-1
1192 1232 -5.383536906149151E-1
1193 1150 -2.5438995407098597E-1
1193 1152 -6.498153191290148E-1
1193 1193 1.708118428662816
1193 1195 -4.9971425038098793E-1
1193 1233 -3.041989050818274E-1
1194 1151 -3.6067996286637904E-1
1194 1166 -8.839861136281626E-1
1194 1192 -6.194626855690384E-1
1194 1194 3.554266766994415
1194 1195 -4.915105921028483E-1
1194 1232 -6.032830703440923E-1
1194 1234 -5.953443424838942E-1
1195 1152 -2.938484995626177E-1
1195 1166 -7.173496584251019E-1
1195 1193 -4.9971425038098793E-1
1195 1194 -4.915105921028483E-1
1195 1195 3.463669561047519
1195 1233 -5.316097128136057E-1
1195 1234 -3.270334194852475E-1
1195 1243 -6.026034282771098E-1
1196 1153 -6.047957323276496E-1
1196 1155 -5.722987144273899E-1
1196 1178 -5.671829357497757E-1
1196 1196 3.464597008821446
1196 1197 -5.663710699148901E-1
1196 1219 -5.775122438323919E-1
1196 1235 -5.764363125693496E-1
1197 1153 -5.765699267072236E-1
1197 1154 -5.941151772319269E-1
1197 1169 -5.665212790261077E-1
1197 1196 -5.663710699148901E-1
1197 1197 3.464443832974515
1197 1210 -5.805411917890408E-1
1197 1235 -5.803251883053258E-1
1198 1156 -5.772948470444885E-1
1198 1178 -5.788852102104101E-1
1198 1181 -5.763275784299058E-1
1198 1198 3.4641046561965556
1198 1219 -5.759183997071256E-1
1198 1223 -5.779989723266975E-1
1198 1236 -5.776796484779283E-1
1199 1158 -6.960686920366449E-1
1199 1159 -6.597329478811922E-1
1199 1186 -1.2457568222738286E-1
1199 1199 1.7395816459041193
1199 1200 -2.5920432375889924E-1
1200 1159 -4.4774566592081155E-1
1200 1187 -7.283626694461807E-1
1200 1199 -2.5920432375889924E-1
1200 1200 1.716755117649678
1200 1228 -2.8144245852378647E-1
1201 1160 -4.0126087414239126E-1
1201 1161 -6.601061174886783E-1
1201 1187 -4.7726144840057927E-1
1201 1201 3.497210325398821
1201 1202 -6.942194098897134E-1
1201 1228 -6.723902209476296E-1
1201 1237 -5.919722545298296E-1
1202 1161 -4.70438815319528E-1
1202 1188 -5.828690482341318E-1
1202 1201 -6.942194098897134E-1
1202 1202 3.4848536167787985
1202 1229 -6.830040686053683E-1
1202 1237 -5.374045048059659E-1
1202 1238 -5.169177699240911E-1
1203 1162 -5.773401847979645E-1
1203 1163 -5.773502734835465E-1
1203 1189 -5.773615133980127E-1
1203 1203 3.46410161535249
1203 1204 -5.773502694859983E-1
1203 1230 -5.773568588884344E-1
1203 1239 -5.773425152985339E-1
1204 1163 -5.77350268309791E-1
1204 1164 -5.77350269532348E-1
1204 1203 -5.773502694859983E-1
1204 1204 3.464101615137755
1204 1205 -5.773502694003803E-1
1204 1239 -5.773502697302647E-1
1204 1240 -5.773502686789725E-1
1205 1164 -5.773278925115406E-1
1205 1165 -5.773167189451716E-1
1205 1204 -5.773502694003803E-1
1205 1205 3.4641016500488675
1205 1206 -5.775404951680512E-1
1205 1240 -5.773502692862867E-1
1205 1241 -5.772160047374368E-1
1206 1165 -5.77350255570724E-1
1206 1191 -5.767578002662095E-1
1206 1205 -5.775404951680512E-1
1206 1206 3.4641028224424715
1206 1231 -5.781784458923167E-1
1206 1241 -5.766834147774804E-1
1206 1242 -5.775924107676897E-1
1207 1167 -5.775688754437589E-1
1207 1170 -5.772761778145227E-1
1207 1207 3.464101673887746
1207 1208 -5.771466548423728E-1
1207 1211 -5.773055584043382E-1
1207 1244 -5.774059396194791E-1
1207 1245 -5.773984677632744E-1
1208 1167 -5.771722677780498E-1
1208 1168 -5.791373753998084E-1
1208 1207 -5.771466548423728E-1
1208 1208 3.464105385791907
1208 1209 -5.758555816504737E-1
1208 1244 -5.773736767061234E-1
1208 1246 -5.774198294150791E-1
1209 1168 -5.799190218000995E-1
1209 1169 -5.763115328038801E-1
1209 1208 -5.758555816504737E-1
1209 1209 3.464107405150047
1209 1210 -5.773502524342022E-1
1209 1246 -5.773214394343215E-1
1209 1247 -5.773495770270702E-1
1210 1169 -5.762202399836878E-1
1210 1197 -5.805411917890408E-1
1210 1209 -5.773502524342022E-1
1210 1210 3.464111141184222
1210 1235 -5.753001273356988E-1
1210 1247 -5.773523646578262E-1
1210 1248 -5.773469649837659E-1
1211 1170 -5.774013867630505E-1
1211 1171 -5.773431967806568E-1
1211 1207 -5.773055584043382E-1
1211 1211 3.4641016174765515
1211 1212 -5.773606721404352E-1
1211 1245 -5.773405324994901E-1
1211 1249 -5.773502708885805E-1
1212 1171 -5.773269088926788E-1
1212 1172 -5.773632272479019E-1
1212 1211 -5.773606721404352E-1
1212 1212 3.4641016156160123
1212 1213 -5.773502692203101E-1
1212 1249 -5.773502686046863E-1
1212 1250 -5.773502695099998E-1
1213 1172 -5.773502692235887E-1
1213 1173 -5.773502691544106E-1
1213 1212 -5.773502692203101E-1
1213 1213 3.4641016151377544
1213 1214 -5.773502691869503E-1
1213 1250 -5.773502690954895E-1
1213 1251 -5.773502692570055E-1
1214 1173 -5.77350269206478E-1
1214 1174 -5.773502691767909E-1
1214 1213 -5.773502691869503E-1
1214 1214 3.4641016151377544
1214 1215 -5.773502691860158E-1
1214 1251 -5.773502691741144E-1
1214 1252 -5.773502692074048E-1
1215 1174 -5.773502691955539E-1
1215 1175 -5.773502691864529E-1
1215 1214 -5.773502691860158E-1
1215 1215 3.464101615137754
1215 1216 -5.773502691880352E-1
1215 1252 -5.773502691881589E-1
1215 1253 -5.773502691935373E-1
1216 1175 -5.773502691912138E-1
1216 1176 -5.773502691889981E-1
1216 1215 -5.773502691880352E-1
1216 1216 3.4641016151377544
1216 1217 -5.77350269189298E-1
1216 1253 -5.773502691902695E-1
1216 1254 -5.773502691899395E-1
1217 1176 -5.773502691899468E-1
1217 1177 -5.773502691896296E-1
1217 1216 -5.77350269189298E-1
1217 1217 3.4641016151377553
1217 1218 -5.77350269189626E-1
1217 1254 -5.773502691896328E-1
1217 1255 -5.773502691896215E-1
1218 1177 -5.773502691896257E-1
1218 1183 -5.773502691896537E-1
1218 1217 -5.77350269189626E-1
1218 1218 3.464102110872908
1218 1225 -5.769916603335461E-1
1218 1255 -5.769534994440895E-1
1218 1256 -5.781061435263668E-1
1219 1178 -5.786683520976106E-1
1219 1196 -5.775122438323919E-1
1219 1198 -5.759183997071256E-1
1219 1219 3.464103874501504
1219 1235 -5.773602223057848E-1
1219 1236 -5.772438082580011E-1
1219 1257 -5.774008483005895E-1
1220 1179 -5.77169361143761E-1
1220 1181 -5.780657978313936E-1
1220 1220 3.464101996616034
1220 1221 -5.771406065863416E-1
1220 1223 -5.770616949672274E-1
1220 1258 -5.7732694386437E-1
1220 1259 -5.773375922229409E-1
1221 1179 -5.775690635127415E-1
1221 1180 -5.772911443160496E-1
1221 1220 -5.771406065863416E-1
1221 1221 3.464101672715067
1221 1222 -5.772535137633836E-1
1221 1258 -5.774143155711791E-1
1221 1260 -5.774330289653719E-1
1222 1180 -5.774640733375831E-1
1222 1182 -5.773191807124403E-1
1222 1221 -5.772535137633836E-1
1222 1222 3.4641016280714516
1222 1224 -5.772954673682724E-1
1222 1260 -5.773770482769682E-1
1222 1261 -5.773923446128044E-1
1223 1181 -5.773044859291084E-1
1223 1198 -5.779989723266975E-1
1223 1220 -5.770616949672274E-1
1223 1223 3.4641019627500436
1223 1236 -5.770290479521306E-1
1223 1259 -5.7738234517386E-1
1223 1262 -5.773254164010191E-1
1224 1182 -5.774340682183012E-1
1224 1190 -5.773220574359919E-1
1224 1222 -5.772954673682724E-1
1224 1224 3.464101620587934
1224 1230 -5.773315721005732E-1
1224 1261 -5.773433910473194E-1
1224 1263 -5.773750644174755E-1
1225 1183 -5.773502691896153E-1
1225 1184 -5.773502691896684E-1
1225 1218 -5.769916603335461E-1
1225 1225 3.46411840348103
1225 1226 -5.751994051611575E-1
1225 1256 -5.752895563645531E-1
1225 1264 -5.819372432424894E-1
1226 1184 -5.773502691896124E-1
1226 1185 -5.773502691896559E-1
1226 1225 -5.751994051611575E-1
1226 1226 3.4645825743676553
1226 1227 -5.796470602765169E-1
1226 1264 -5.946435801916936E-1
1226 1265 -5.603919903590187E-1
1227 1185 -5.699835263444796E-1
1227 1188 -6.304324126350905E-1
1227 1226 -5.796470602765169E-1
1227 1227 3.4702047334824444
1227 1229 -5.451975236126334E-1
1227 1265 -6.351491874659339E-1
1227 1266 -5.097950231477897E-1
1228 1187 -4.9373759217986785E-1
1228 1200 -2.8144245852378647E-1
1228 1201 -6.723902209476296E-1
1228 1228 1.7090846495447618
1228 1237 -2.615143778934779E-1
1229 1188 -5.11344555476891E-1
1229 1202 -6.830040686053683E-1
1229 1227 -5.451975236126334E-1
1229 1229 3.4784315654018574
1229 1238 -5.45905709729507E-1
1229 1266 -6.807711183539524E-1
1229 1267 -5.122085896235051E-1
1230 1189 -5.773085403491727E-1
1230 1190 -5.774080050490645E-1
1230 1203 -5.773568588884344E-1
1230 1224 -5.773315721005732E-1
1230 1230 3.4641016180290736
1230 1239 -5.773607728538589E-1
1230 1263 -5.773358687879704E-1
1231 1191 -5.726422690388655E-1
1231 1192 -5.805410882813082E-1
1231 1206 -5.781784458923167E-1
1231 1231 3.4641471187216695
1231 1232 -5.808584501063322E-1
1231 1242 -5.733701437582316E-1
1231 1268 -5.785567216446151E-1
1232 1192 -5.383536906149151E-1
1232 1194 -6.032830703440923E-1
1232 1231 -5.808584501063322E-1
1232 1232 3.466953442055207
1232 1234 -5.555085263837143E-1
1232 1268 -5.623371483193441E-1
1232 1269 -6.266125562868083E-1
1233 1193 -3.041989050818274E-1
1233 1195 -5.316097128136057E-1
1233 1233 1.7589227297291479
1233 1243 -8.150865558396856E-1
1233 1270 -1.0802755599402919E-1
1234 1194 -5.953443424838942E-1
1234 1195 -3.270334194852475E-1
1234 1232 -5.555085263837143E-1
1234 1234 3.5565626586399723
1234 1243 -9.441618249128219E-1
1234 1269 -5.804553269012686E-1
1234 1271 -5.540592184730259E-1
1235 1196 -5.764363125693496E-1
1235 1197 -5.803251883053258E-1
1235 1210 -5.753001273356988E-1
1235 1219 -5.773602223057848E-1
1235 1235 3.4641103731671956
1235 1248 -5.773582071547865E-1
1235 1257 -5.773303154962504E-1
1236 1198 -5.776796484779283E-1
1236 1219 -5.772438082580011E-1
1236 1223 -5.770290479521306E-1
1236 1236 3.4641018276457354
1236 1257 -5.773110190467715E-1
1236 1262 -5.774467905210408E-1
1236 1272 -5.773915133898628E-1
1237 1201 -5.919722545298296E-1
1237 1202 -5.374045048059659E-1
1237 1228 -2.615143778934779E-1
1237 1237 1.7022493560661447
1237 1238 -3.113582188368714E-1
1238 1202 -5.169177699240911E-1
1238 1229 -5.45905709729507E-1
1238 1237 -3.113582188368714E-1
1238 1238 1.7027531430630387
1238 1267 -3.28571444572569E-1
1239 1203 -5.773425152985339E-1
1239 1204 -5.773502697302647E-1
1239 1230 -5.773607728538589E-1
1239 1239 3.464101615248632
1239 1240 -5.77350269440402E-1
1239 1263 -5.773497714927971E-1
1239 1273 -5.773480164327751E-1
1240 1204 -5.773502686789725E-1
1240 1205 -5.773502692862867E-1
1240 1239 -5.77350269440402E-1
1240 1240 3.464101615137755
1240 1241 -5.773502692314352E-1
1240 1273 -5.773502693450099E-1
1240 1274 -5.773502691556486E-1
1241 1205 -5.772160047374368E-1
1241 1206 -5.766834147774804E-1
1241 1240 -5.773502692314352E-1
1241 1241 3.4641035007630405
1241 1242 -5.788415197261667E-1
1241 1274 -5.773502691954508E-1
1241 1275 -5.766620230950705E-1
1242 1206 -5.775924107676897E-1
1242 1231 -5.733701437582316E-1
1242 1241 -5.788415197261667E-1
1242 1242 3.4641433918818305
1242 1268 -5.833579337639518E-1
1242 1275 -5.778588971814527E-1
1242 1276 -5.731224866843376E-1
1243 1195 -6.026034282771098E-1
1243 1233 -8.150865558396856E-1
1243 1234 -9.441618249128219E-1
1243 1243 3.7171245987718193
1243 1270 -8.931952109040147E-1
1243 1271 -4.6207757883818734E-1
1244 1207 -5.774059396194791E-1
1244 1208 -5.773736767061234E-1
1244 1244 3.464101619424697
1244 1245 -5.773118076142889E-1
1244 1246 -5.773096284386795E-1
1244 1277 -5.773502760789302E-1
1244 1278 -5.773502909671964E-1
1245 1207 -5.773984677632744E-1
1245 1211 -5.773405324994901E-1
1245 1244 -5.773118076142889E-1
1245 1245 3.4641016178632
1245 1249 -5.773502674300984E-1
1245 1277 -5.773502698121267E-1
1245 1279 -5.773502727439213E-1
1246 1208 -5.774198294150791E-1
1246 1209 -5.773214394343215E-1
1246 1244 -5.773096284386795E-1
1246 1246 3.464101619449345
1246 1247 -5.773500548958554E-1
1246 1278 -5.773503788653545E-1
1246 1280 -5.77350288400055E-1
1247 1209 -5.773495770270702E-1
1247 1210 -5.773523646578262E-1
1247 1246 -5.773500548958554E-1
1247 1247 3.464101615144413
1247 1248 -5.773481955977444E-1
1247 1280 -5.773504817706199E-1
1247 1281 -5.773509411952971E-1
1248 1210 -5.773469649837659E-1
1248 1235 -5.773582071547865E-1
1248 1247 -5.773481955977444E-1
1248 1248 3.4641016152712396
1248 1257 -5.773438072557663E-1
1248 1281 -5.773537956376826E-1
1248 1282 -5.77350644641494E-1
1249 1211 -5.773502708885805E-1
1249 1212 -5.773502686046863E-1
1249 1245 -5.773502674300984E-1
1249 1249 3.4641016151377544
1249 1250 -5.773502689281529E-1
1249 1279 -5.773502698953131E-1
1249 1283 -5.773502693909229E-1
1250 1212 -5.773502695099998E-1
1250 1213 -5.773502690954895E-1
1250 1249 -5.773502689281529E-1
1250 1250 3.4641016151377544
1250 1251 -5.773502691288737E-1
1250 1283 -5.773502691657035E-1
1250 1284 -5.773502693095351E-1
1251 1213 -5.773502692570055E-1
1251 1214 -5.773502691741144E-1
1251 1250 -5.773502691288737E-1
1251 1251 3.464101615137755
1251 1252 -5.773502691700736E-1
1251 1284 -5.773502691918359E-1
1251 1285 -5.773502692158521E-1
1252 1214 -5.773502692074048E-1
1252 1215 -5.773502691881589E-1
1252 1251 -5.773502691700736E-1
1252 1252 3.4641016151377544
1252 1253 -5.773502691854017E-1
1252 1285 -5.773502691946246E-1
1252 1286 -5.773502691920906E-1
1253 1215 -5.773502691935373E-1
1253 1216 -5.773502691902695E-1
1253 1252 -5.773502691854017E-1
1253 1253 3.4641016151377544
1253 1254 -5.773502691893142E-1
1253 1286 -5.773502691895973E-1
1253 1287 -5.773502691896346E-1
1254 1216 -5.773502691899395E-1
1254 1217 -5.773502691896328E-1
1254 1253 -5.773502691893142E-1
1254 1254 3.464101615137755
1254 1255 -5.773502691896258E-1
1254 1287 -5.773502691896093E-1
1254 1288 -5.773502691896331E-1
1255 1217 -5.773502691896215E-1
1255 1218 -5.769534994440895E-1
1255 1254 -5.773502691896258E-1
1255 1255 3.4641018903108676
1255 1256 -5.777851786377294E-1
1255 1288 -5.773502691896246E-1
1255 1289 -5.773124046601763E-1
1256 1218 -5.781061435263668E-1
1256 1225 -5.752895563645531E-1
1256 1255 -5.777851786377294E-1
1256 1256 3.464156877860777
1256 1264 -5.766527710412941E-1
1256 1289 -5.716059826052219E-1
1256 1290 -5.847172456856112E-1
1257 1219 -5.774008483005895E-1
1257 1235 -5.773303154962504E-1
1257 1236 -5.773110190467715E-1
1257 1248 -5.773438072557663E-1
1257 1257 3.4641016198786456
1257 1272 -5.773474520143358E-1
1257 1282 -5.773681777649322E-1
1258 1220 -5.7732694386437E-1
1258 1221 -5.774143155711791E-1
1258 1258 3.464101623969869
1258 1259 -5.773786140357922E-1
1258 1260 -5.772489784372966E-1
1258 1291 -5.773694518478447E-1
1258 1292 -5.773633202133859E-1
1259 1220 -5.773375922229409E-1
1259 1223 -5.7738234517386E-1
1259 1258 -5.773786140357922E-1
1259 1259 3.464101620440536
1259 1262 -5.773374736163791E-1
1259 1292 -5.772844874739249E-1
1259 1293 -5.77381107917639E-1
1260 1221 -5.774330289653719E-1
1260 1222 -5.773770482769682E-1
1260 1258 -5.772489784372966E-1
1260 1260 3.4641016247995893
1260 1261 -5.773241474815067E-1
1260 1291 -5.77345378184724E-1
1260 1294 -5.773730434537218E-1
1261 1222 -5.773923446128044E-1
1261 1224 -5.773433910473194E-1
1261 1260 -5.773241474815067E-1
1261 1261 3.4641016168132155
1261 1263 -5.773427557894568E-1
1261 1294 -5.773398108490182E-1
1261 1295 -5.773591670331097E-1
1262 1223 -5.773254164010191E-1
1262 1236 -5.774467905210408E-1
1262 1259 -5.773374736163791E-1
1262 1262 3.4641016217824996
1262 1272 -5.773076296274791E-1
1262 1293 -5.773376613618809E-1
1262 1296 -5.773466502547009E-1
1263 1224 -5.773750644174755E-1
1263 1230 -5.773358687879704E-1
1263 1239 -5.773497714927971E-1
1263 1261 -5.773427557894568E-1
1263 1263 3.4641016155954274
1263 1273 -5.773536480548624E-1
1263 1295 -5.773445070528651E-1
1264 1225 -5.819372432424894E-1
1264 1226 -5.946435801916936E-1
1264 1256 -5.766527710412941E-1
1264 1264 3.4653404506969223
1264 1265 -5.366099257139034E-1
1264 1290 -5.816950621381469E-1
1264 1297 -5.938018683693946E-1
1265 1226 -5.603919903590187E-1
1265 1227 -6.351491874659339E-1
1265 1264 -5.366099257139034E-1
1265 1265 3.4683357113127995
1265 1266 -5.424751785749169E-1
1265 1297 -6.174414785734665E-1
1265 1298 -5.762679506255599E-1
1266 1227 -5.097950231477897E-1
1266 1229 -6.807711183539524E-1
1266 1265 -5.424751785749169E-1
1266 1266 3.473400888471116
1266 1267 -5.443585850876127E-1
1266 1298 -6.34177478963529E-1
1266 1299 -5.618235043433155E-1
1267 1229 -5.122085896235051E-1
1267 1238 -3.28571444572569E-1
1267 1266 -5.443585850876127E-1
1267 1267 1.7032669739814974
1267 1299 -3.181283546978105E-1
1268 1231 -5.785567216446151E-1
1268 1232 -5.623371483193441E-1
1268 1242 -5.833579337639518E-1
1268 1268 3.465456089745376
1268 1269 -5.760823799210777E-1
1268 1276 -5.544589505687725E-1
1268 1300 -6.106629555276145E-1
1269 1232 -6.266125562868083E-1
1269 1234 -5.804553269012686E-1
1269 1268 -5.760823799210777E-1
1269 1269 3.4877189436465454
1269 1271 -5.041718962995722E-1
1269 1300 -4.667977003571005E-1
1269 1301 -7.335990838807185E-1
1270 1233 -1.0802755599402919E-1
1270 1243 -8.931952109040147E-1
1270 1270 1.780695151843363
1270 1271 -4.5823106683002096E-1
1270 1302 -3.212413181152979E-1
1271 1234 -5.540592184730259E-1
1271 1243 -4.6207757883818734E-1
1271 1269 -5.041718962995722E-1
1271 1270 -4.5823106683002096E-1
1271 1271 3.396650932445393
1271 1301 -3.8404463703447345E-1
1271 1302 -4.4128051884626046E-1
1271 1308 -5.92786016123853E-1
1272 1236 -5.773915133898628E-1
1272 1257 -5.773474520143358E-1
1272 1262 -5.773076296274791E-1
1272 1272 3.4641016192829124
1272 1282 -5.773324800931956E-1
1272 1296 -5.773618143367616E-1
1272 1303 -5.773607298212775E-1
1273 1239 -5.773480164327751E-1
1273 1240 -5.773502693450099E-1
1273 1263 -5.773536480548624E-1
1273 1273 3.4641016151487403
1273 1274 -5.773502692038648E-1
1273 1295 -5.773491429765731E-1
1273 1304 -5.773502691356551E-1
1274 1240 -5.773502691556486E-1
1274 1241 -5.773502691954508E-1
1274 1273 -5.773502692038648E-1
1274 1274 3.464101615137755
1274 1275 -5.773502692017229E-1
1274 1304 -5.773502692082575E-1
1274 1305 -5.773502691728103E-1
1275 1241 -5.766620230950705E-1
1275 1242 -5.778588971814527E-1
1275 1274 -5.773502692017229E-1
1275 1275 3.4641024918180134
1275 1276 -5.77530763957349E-1
1275 1305 -5.773502691971697E-1
1275 1306 -5.773502691852488E-1
1276 1242 -5.731224866843376E-1
1276 1268 -5.544589505687725E-1
1276 1275 -5.77530763957349E-1
1276 1276 3.4654191348623073
1276 1300 -6.176161711406445E-1
1276 1306 -5.773502691907428E-1
1276 1307 -5.653404933204615E-1
1277 1244 -5.773502760789302E-1
1277 1245 -5.773502698121267E-1
1277 1277 3.4641016151377553
1277 1278 -5.773502620867251E-1
1277 1279 -5.773502655770144E-1
1277 1309 -5.773502689859877E-1
1277 1310 -5.773502725969708E-1
1278 1244 -5.773502909671964E-1
1278 1246 -5.773503788653545E-1
1278 1277 -5.773502620867251E-1
1278 1278 3.464101615137765
1278 1280 -5.773501577139223E-1
1278 1309 -5.773502747722694E-1
1278 1311 -5.773502507322978E-1
1279 1245 -5.773502727439213E-1
1279 1249 -5.773502698953131E-1
1279 1277 -5.773502655770144E-1
1279 1279 3.464101615137755
1279 1283 -5.773502689699037E-1
1279 1310 -5.773502685914993E-1
1279 1312 -5.773502693601027E-1
1280 1246 -5.77350288400055E-1
1280 1247 -5.773504817706199E-1
1280 1278 -5.773501577139223E-1
1280 1280 3.4641016151378983
1280 1281 -5.773500022933797E-1
1280 1311 -5.773503264384667E-1
1280 1313 -5.773503585214549E-1
1281 1247 -5.773509411952971E-1
1281 1248 -5.773537956376826E-1
1281 1280 -5.773500022933797E-1
1281 1281 3.4641016151491835
1281 1282 -5.773468795269284E-1
1281 1313 -5.773506959200401E-1
1281 1314 -5.773493005758554E-1
1282 1248 -5.77350644641494E-1
1282 1257 -5.773681777649322E-1
1282 1272 -5.773324800931956E-1
1282 1281 -5.773468795269284E-1
1282 1282 3.4641016154268947
1282 1303 -5.773495430938889E-1
1282 1314 -5.773538903064559E-1
1283 1249 -5.773502693909229E-1
1283 1250 -5.773502691657035E-1
1283 1279 -5.773502689699037E-1
1283 1283 3.464101615137754
1283 1284 -5.773502690546073E-1
1283 1312 -5.773502692503971E-1
1283 1315 -5.773502693062195E-1
1284 1250 -5.773502693095351E-1
1284 1251 -5.773502691918359E-1
1284 1283 -5.773502690546073E-1
1284 1284 3.4641016151377544
1284 1285 -5.773502691631558E-1
1284 1315 -5.773502692174772E-1
1284 1316 -5.773502692011431E-1
1285 1251 -5.773502692158521E-1
1285 1252 -5.773502691946246E-1
1285 1284 -5.773502691631558E-1
1285 1285 3.464101615137754
1285 1286 -5.773502691875454E-1
1285 1316 -5.773502691850398E-1
1285 1317 -5.773502691915362E-1
1286 1252 -5.773502691920906E-1
1286 1253 -5.773502691895973E-1
1286 1285 -5.773502691875454E-1
1286 1286 3.464101615137755
1286 1287 -5.773502691896855E-1
1286 1317 -5.77350269188882E-1
1286 1318 -5.773502691899541E-1
1287 1253 -5.773502691896346E-1
1287 1254 -5.773502691896093E-1
1287 1286 -5.773502691896855E-1
1287 1287 3.4641016151377553
1287 1288 -5.77350269189634E-1
1287 1318 -5.773502691895009E-1
1287 1319 -5.773502691896908E-1
1288 1254 -5.773502691896331E-1
1288 1255 -5.773502691896246E-1
1288 1287 -5.77350269189634E-1
1288 1288 3.464129448791045
1288 1289 -5.800533554664828E-1
1288 1319 -5.7438934839923E-1
1288 1320 -5.776359373564404E-1
1289 1255 -5.773124046601763E-1
1289 1256 -5.716059826052219E-1
1289 1288 -5.800533554664828E-1
1289 1289 3.4657129122990957
1289 1290 -5.76438076937895E-1
1289 1320 -5.418782008350552E-1
1289 1321 -6.184248917942643E-1
1290 1256 -5.847172456856112E-1
1290 1264 -5.816950621381469E-1
1290 1289 -5.76438076937895E-1
1290 1290 3.473067541621788
1290 1297 -5.13860533556283E-1
1290 1321 -5.255534615051097E-1
1290 1322 -6.90803161798742E-1
1291 1258 -5.773694518478447E-1
1291 1260 -5.77345378184724E-1
1291 1291 3.4641016162480427
1291 1292 -5.773412300201818E-1
1291 1294 -5.773388461842965E-1
1291 1323 -5.773386594825477E-1
1291 1324 -5.773680505284479E-1
1292 1258 -5.773633202133859E-1
1292 1259 -5.772844874739249E-1
1292 1291 -5.773412300201818E-1
1292 1292 3.4641016190377116
1292 1293 -5.773344408507044E-1
1292 1323 -5.773827892949941E-1
1292 1325 -5.773953511845202E-1
1293 1259 -5.77381107917639E-1
1293 1262 -5.773376613618809E-1
1293 1292 -5.773344408507044E-1
1293 1293 3.4641016165251637
1293 1296 -5.773522792684634E-1
1293 1325 -5.773318684483787E-1
1293 1326 -5.773642586780975E-1
1294 1260 -5.773730434537218E-1
1294 1261 -5.773398108490182E-1
1294 1291 -5.773388461842965E-1
1294 1294 3.464101615535605
1294 1295 -5.773500027708676E-1
1294 1324 -5.773471737517931E-1
1294 1327 -5.773527385259075E-1
1295 1261 -5.773591670331097E-1
1295 1263 -5.773445070528651E-1
1295 1273 -5.773491429765731E-1
1295 1294 -5.773500027708676E-1
1295 1295 3.4641016151975945
1295 1304 -5.773502692329249E-1
1295 1327 -5.773485261312534E-1
1296 1262 -5.773466502547009E-1
1296 1272 -5.773618143367616E-1
1296 1293 -5.773522792684634E-1
1296 1296 3.4641016153135666
1296 1303 -5.773391153450926E-1
1296 1326 -5.773494918802526E-1
1296 1328 -5.773522642282954E-1
1297 1264 -5.938018683693946E-1
1297 1265 -6.174414785734665E-1
1297 1290 -5.13860533556283E-1
1297 1297 3.4696665600936445
1297 1298 -5.318730789782271E-1
1297 1322 -5.836152312123841E-1
1297 1329 -6.290743694038896E-1
1298 1265 -5.762679506255599E-1
1298 1266 -6.34177478963529E-1
1298 1297 -5.318730789782271E-1
1298 1298 3.4694501410599923
1298 1299 -5.141209753298346E-1
1298 1329 -6.157719065227246E-1
1298 1330 -5.972387506401171E-1
1299 1266 -5.618235043433155E-1
1299 1267 -3.181283546978105E-1
1299 1298 -5.141209753298346E-1
1299 1299 1.7017756435330673
1299 1330 -3.077028091621066E-1
1300 1268 -6.106629555276145E-1
1300 1269 -4.667977003571005E-1
1300 1276 -6.176161711406445E-1
1300 1300 3.4784185109604238
1300 1301 -6.911778512730862E-1
1300 1307 -5.37778988425795E-1
1300 1331 -5.543848442361832E-1
1301 1269 -7.335990838807185E-1
1301 1271 -3.8404463703447345E-1
1301 1300 -6.911778512730862E-1
1301 1301 3.5599550460951854
1301 1308 -8.097112023351807E-1
1301 1331 -6.205847701603124E-1
1301 1332 -3.208375014114142E-1
1302 1270 -3.212413181152979E-1
1302 1271 -4.4128051884626046E-1
1302 1302 1.7596403506158063
1302 1308 -8.474662177625377E-1
1302 1333 -1.4965229589171014E-1
1303 1272 -5.773607298212775E-1
1303 1282 -5.773495430938889E-1
1303 1296 -5.773391153450926E-1
1303 1303 3.464101615302786
1303 1314 -5.773471468897615E-1
1303 1328 -5.773532042670214E-1
1303 1334 -5.773518758857445E-1
1304 1273 -5.773502691356551E-1
1304 1274 -5.773502692082575E-1
1304 1295 -5.773502692329249E-1
1304 1304 3.4641016151377544
1304 1305 -5.773502691992141E-1
1304 1327 -5.773502691834461E-1
1304 1335 -5.773502691782569E-1
1305 1274 -5.773502691728103E-1
1305 1275 -5.773502691971697E-1
1305 1304 -5.773502691992141E-1
1305 1305 3.464101615137755
1305 1306 -5.773502691911334E-1
1305 1335 -5.77350269192823E-1
1305 1336 -5.773502691846041E-1
1306 1275 -5.773502691852488E-1
1306 1276 -5.773502691907428E-1
1306 1305 -5.773502691911334E-1
1306 1306 3.464101615137755
1306 1307 -5.773502691895424E-1
1306 1336 -5.773502691916748E-1
1306 1337 -5.773502691894123E-1
1307 1276 -5.653404933204615E-1
1307 1300 -5.37778988425795E-1
1307 1306 -5.773502691895424E-1
1307 1307 3.468014914278229
1307 1331 -6.358184527667778E-1
1307 1337 -5.425818015154509E-1
1307 1338 -6.091449090602012E-1
1308 1271 -5.92786016123853E-1
1308 1301 -8.097112023351807E-1
1308 1302 -8.474662177625377E-1
1308 1308 3.6662942078866614
1308 1332 -6.376293748129218E-1
1308 1333 -7.78701396852168E-1
1309 1277 -5.773502689859877E-1
1309 1278 -5.773502747722694E-1
1309 1309 3.464101615137755
1309 1310 -5.773502658270424E-1
1309 1311 -5.773502617942068E-1
1309 1339 -5.773502730188227E-1
1309 1340 -5.773502707394258E-1
1310 1277 -5.773502725969708E-1
1310 1279 -5.773502685914993E-1
1310 1309 -5.773502658270424E-1
1310 1310 3.464101615137755
1310 1312 -5.773502690050504E-1
1310 1340 -5.773502696942687E-1
1310 1341 -5.773502694229229E-1
1311 1278 -5.773502507322978E-1
1311 1280 -5.773503264384667E-1
1311 1309 -5.773502617942068E-1
1311 1311 3.4641016151377597
1311 1313 -5.773502134950641E-1
1311 1339 -5.773502780571628E-1
1311 1342 -5.773502846205614E-1
1312 1279 -5.773502693601027E-1
1312 1283 -5.773502692503971E-1
1312 1310 -5.773502690050504E-1
1312 1312 3.4641016151377544
1312 1315 -5.773502690784996E-1
1312 1341 -5.773502691566902E-1
1312 1343 -5.773502692870145E-1
1313 1280 -5.773503585214549E-1
1313 1281 -5.773506959200401E-1
1313 1311 -5.773502134950641E-1
1313 1313 3.4641016151381763
1313 1314 -5.773497828430596E-1
1313 1342 -5.773502692635643E-1
1313 1344 -5.77350295094993E-1
1314 1281 -5.773493005758554E-1
1314 1282 -5.773538903064559E-1
1314 1303 -5.773471468897615E-1
1314 1313 -5.773497828430596E-1
1314 1314 3.46410161514877
1314 1334 -5.773502260262753E-1
1314 1344 -5.773512685073623E-1
1315 1283 -5.773502693062195E-1
1315 1284 -5.773502692174772E-1
1315 1312 -5.773502690784996E-1
1315 1315 3.464101615137755
1315 1316 -5.773502691785295E-1
1315 1343 -5.773502691505386E-1
1315 1345 -5.773502692064902E-1
1316 1284 -5.773502692011431E-1
1316 1285 -5.773502691850398E-1
1316 1315 -5.773502691785295E-1
1316 1316 3.464101615137755
1316 1317 -5.773502691880121E-1
1316 1345 -5.773502691933745E-1
1316 1346 -5.773502691916554E-1
1317 1285 -5.773502691915362E-1
1317 1286 -5.77350269188882E-1
1317 1316 -5.773502691880121E-1
1317 1317 3.4641016151377544
1317 1318 -5.773502691893009E-1
1317 1346 -5.773502691897685E-1
1317 1347 -5.773502691902543E-1
1318 1286 -5.773502691899541E-1
1318 1287 -5.773502691895009E-1
1318 1317 -5.773502691893009E-1
1318 1318 3.464101615137755
1318 1319 -5.77350269189574E-1
1318 1347 -5.773502691897472E-1
1318 1348 -5.773502691896775E-1
1319 1287 -5.773502691896908E-1
1319 1288 -5.7438934839923E-1
1319 1318 -5.77350269189574E-1
1319 1319 3.4641730243550497
1319 1320 -5.860577773686044E-1
1319 1348 -5.773502691896328E-1
1319 1349 -5.716750910183177E-1
1320 1288 -5.776359373564404E-1
1320 1289 -5.418782008350552E-1
1320 1319 -5.860577773686044E-1
1320 1320 3.468426260566189
1320 1321 -6.399925752331843E-1
1320 1349 -5.95472499650767E-1
1320 1350 -5.273892701221378E-1
1321 1289 -6.184248917942643E-1
1321 1290 -5.255534615051097E-1
1321 1320 -6.399925752331843E-1
1321 1321 3.4776189904902255
1321 1322 -5.359132147768331E-1
1321 1350 -4.8431901732703053E-1
1321 1351 -6.734158298538033E-1
1322 1290 -6.90803161798742E-1
1322 1297 -5.836152312123841E-1
1322 1321 -5.359132147768331E-1
1322 1322 3.486172017612991
1322 1329 -4.30426804706517E-1
1322 1351 -5.871109954383595E-1
1322 1352 -6.583026096801547E-1
1323 1291 -5.773386594825477E-1
1323 1292 -5.773827892949941E-1
1323 1323 3.4641016164880614
1323 1324 -5.773393693687343E-1
1323 1325 -5.77319350909292E-1
1323 1353 -5.773627701296824E-1
1323 1354 -5.773586773028103E-1
1324 1291 -5.773680505284479E-1
1324 1294 -5.773471737517931E-1
1324 1323 -5.773393693687343E-1
1324 1324 3.4641016153482913
1324 1327 -5.773498334264864E-1
1324 1353 -5.773464833171693E-1
1324 1355 -5.773507049556599E-1
1325 1292 -5.773953511845202E-1
1325 1293 -5.773318684483787E-1
1325 1323 -5.77319350909292E-1
1325 1325 3.4641016169295975
1325 1326 -5.773435561743222E-1
1325 1354 -5.773526787592429E-1
1325 1356 -5.773588114538418E-1
1326 1293 -5.773642586780975E-1
1326 1296 -5.773494918802526E-1
1326 1325 -5.773435561743222E-1
1326 1326 3.464101615297464
1326 1328 -5.773468437820817E-1
1326 1356 -5.773475723620438E-1
1326 1357 -5.773498924206659E-1
1327 1294 -5.773527385259075E-1
1327 1295 -5.773485261312534E-1
1327 1304 -5.773502691834461E-1
1327 1324 -5.773498334264864E-1
1327 1327 3.4641016151436377
1327 1335 -5.773502691984411E-1
1327 1355 -5.77349978678103E-1
1328 1296 -5.773522642282954E-1
1328 1303 -5.773532042670214E-1
1328 1326 -5.773468437820817E-1
1328 1328 3.4641016151571886
1328 1334 -5.773481605500723E-1
1328 1357 -5.773510233214005E-1
1328 1358 -5.773501190083175E-1
1329 1297 -6.290743694038896E-1
1329 1298 -6.157719065227246E-1
1329 1322 -4.30426804706517E-1
1329 1329 3.4903334007629065
1329 1330 -5.245609984486954E-1
1329 1352 -6.975680405273136E-1
1329 1359 -5.929312811537659E-1
1330 1298 -5.972387506401171E-1
1330 1299 -3.077028091621066E-1
1330 1329 -5.245609984486954E-1
1330 1330 1.7010515995454252
1330 1359 -2.715490412945062E-1
1331 1300 -5.543848442361832E-1
1331 1301 -6.205847701603124E-1
1331 1307 -6.358184527667778E-1
1331 1331 3.5304853547146804
1331 1332 -4.8936531104637065E-1
1331 1338 -4.0380600610780143E-1
1331 1360 -8.26525970397235E-1
1332 1301 -3.208375014114142E-1
1332 1308 -6.376293748129218E-1
1332 1331 -4.8936531104637065E-1
1332 1332 3.4097174917933923
1332 1333 -4.78241885300836E-1
1332 1360 -5.038530503478529E-1
1332 1361 -4.8697993049640387E-1
1332 1367 -4.9281043837759264E-1
1333 1302 -1.4965229589171014E-1
1333 1308 -7.78701396852168E-1
1333 1332 -4.78241885300836E-1
1333 1333 1.7448240572156752
1333 1361 -3.382284791709611E-1
1334 1303 -5.773518758857445E-1
1334 1314 -5.773502260262753E-1
1334 1328 -5.773481605500723E-1
1334 1334 3.4641016151443655
1334 1344 -5.773492507751288E-1
1334 1358 -5.773513162464176E-1
1334 1362 -5.773507856607272E-1
1335 1304 -5.773502691782569E-1
1335 1305 -5.77350269192823E-1
1335 1327 -5.773502691984411E-1
1335 1335 3.464101615137755
1335 1336 -5.773502691922219E-1
1335 1355 -5.773502691890718E-1
1335 1363 -5.773502691869397E-1
1336 1305 -5.773502691846041E-1
1336 1306 -5.773502691916748E-1
1336 1335 -5.773502691922219E-1
1336 1336 3.4641016151377544
1336 1337 -5.773502691896649E-1
1336 1363 -5.773502691907753E-1
1336 1364 -5.773502691888137E-1
1337 1306 -5.773502691894123E-1
1337 1307 -5.425818015154509E-1
1337 1336 -5.773502691896649E-1
1337 1337 3.4667545125288717
1337 1338 -6.311902477808842E-1
1337 1364 -5.773502691897847E-1
1337 1365 -5.609316556636744E-1
1338 1307 -6.091449090602012E-1
1338 1331 -4.0380600610780143E-1
1338 1337 -6.311902477808842E-1
1338 1338 3.520772180041974
1338 1360 -7.919563194985841E-1
1338 1365 -6.172657586725216E-1
1338 1366 -4.6740893892198104E-1
1339 1309 -5.773502730188227E-1
1339 1311 -5.773502780571628E-1
1339 1339 3.4641016151377544
1339 1340 -5.77350267335551E-1
1339 1342 -5.773502584268106E-1
1339 1368 -5.773502691596559E-1
1339 1369 -5.773502691397516E-1
1340 1309 -5.773502707394258E-1
1340 1310 -5.773502696942687E-1
1340 1339 -5.77350267335551E-1
1340 1340 3.4641016151377544
1340 1341 -5.773502689059409E-1
1340 1369 -5.773502692897001E-1
1340 1370 -5.773502691728682E-1
1341 1310 -5.773502694229229E-1
1341 1312 -5.773502691566902E-1
1341 1340 -5.773502689059409E-1
1341 1341 3.4641016151377544
1341 1343 -5.773502690921664E-1
1341 1370 -5.77350269323287E-1
1341 1371 -5.773502692367471E-1
1342 1311 -5.773502846205614E-1
1342 1313 -5.773502692635643E-1
1342 1339 -5.773502584268106E-1
1342 1342 3.4641016151377544
1342 1344 -5.77350259980075E-1
1342 1368 -5.773502707611764E-1
1342 1372 -5.773502720855672E-1
1343 1312 -5.773502692870145E-1
1343 1315 -5.773502691505386E-1
1343 1341 -5.773502690921664E-1
1343 1343 3.464101615137755
1343 1345 -5.773502691704908E-1
1343 1371 -5.773502692288566E-1
1343 1373 -5.773502692086877E-1
1344 1313 -5.77350295094993E-1
1344 1314 -5.773512685073623E-1
1344 1334 -5.773492507751288E-1
1344 1342 -5.77350259980075E-1
1344 1344 3.464101615138638
1344 1362 -5.77350273004041E-1
1344 1372 -5.773502677770381E-1
1345 1315 -5.773502692064902E-1
1345 1316 -5.773502691933745E-1
1345 1343 -5.773502691704908E-1
1345 1345 3.4641016151377544
1345 1346 -5.77350269187326E-1
1345 1373 -5.773502691903651E-1
1345 1374 -5.773502691897077E-1
1346 1316 -5.773502691916554E-1
1346 1317 -5.773502691897685E-1
1346 1345 -5.77350269187326E-1
1346 1346 3.4641016151377544
1346 1347 -5.773502691889204E-1
1346 1374 -5.773502691900183E-1
1346 1375 -5.77350269190066E-1
1347 1317 -5.773502691902543E-1
1347 1318 -5.773502691897472E-1
1347 1346 -5.773502691889204E-1
1347 1347 3.4641320392978265
1347 1348 -5.736842590664156E-1
1347 1375 -5.753371170686779E-1
1347 1376 -5.830598555938109E-1
1348 1318 -5.773502691896775E-1
1348 1319 -5.773502691896328E-1
1348 1347 -5.736842590664156E-1
1348 1348 3.46468333604268
1348 1349 -5.599497753494905E-1
1348 1376 -5.742474914245472E-1
1348 1377 -6.021012718229165E-1
1349 1319 -5.716750910183177E-1
1349 1320 -5.95472499650767E-1
1349 1348 -5.599497753494905E-1
1349 1349 3.4671246539238467
1349 1350 -6.005927055373413E-1
1349 1377 -6.177651358285207E-1
1349 1378 -5.216694465394095E-1
1350 1320 -5.273892701221378E-1
1350 1321 -4.8431901732703053E-1
1350 1349 -6.005927055373413E-1
1350 1350 3.4905885723654575
1350 1351 -7.150970339667813E-1
1350 1378 -6.789651790252038E-1
1350 1379 -4.8422536638696234E-1
1351 1321 -6.734158298538033E-1
1351 1322 -5.871109954383595E-1
1351 1350 -7.150970339667813E-1
1351 1351 3.554276421534393
1351 1352 -3.463485484795925E-1
1351 1379 -3.8528579247755623E-1
1351 1380 -8.470182213182997E-1
1352 1322 -6.583026096801547E-1
1352 1329 -6.975680405273136E-1
1352 1351 -3.463485484795925E-1
1352 1352 3.5129607964712073
1352 1359 -6.474501368105968E-1
1352 1380 -5.394849437659088E-1
1352 1381 -6.238065172076406E-1
1353 1323 -5.773627701296824E-1
1353 1324 -5.773464833171693E-1
1353 1353 3.4641016152752737
1353 1354 -5.77342149078963E-1
1353 1355 -5.773501239347592E-1
1353 1382 -5.77350269190448E-1
1353 1383 -5.773498196242522E-1
1354 1323 -5.773586773028103E-1
1354 1325 -5.773526787592429E-1
1354 1353 -5.77342149078963E-1
1354 1354 3.46410161524675
1354 1356 -5.773448742392608E-1
1354 1383 -5.773516179186129E-1
1354 1384 -5.773516179478603E-1
1355 1324 -5.773507049556599E-1
1355 1327 -5.77349978678103E-1
1355 1335 -5.773502691890718E-1
1355 1353 -5.773501239347592E-1
1355 1355 3.4641016151379374
1355 1363 -5.773502691915415E-1
1355 1382 -5.773502691888017E-1
1356 1325 -5.773588114538418E-1
1356 1326 -5.773475723620438E-1
1356 1354 -5.773448742392608E-1
1356 1356 3.4641016151993678
1356 1357 -5.773502683785843E-1
1356 1384 -5.773498195949446E-1
1356 1385 -5.773502691706927E-1
1357 1326 -5.773498924206659E-1
1357 1328 -5.773510233214005E-1
1357 1356 -5.773502683785843E-1
1357 1357 3.464101615138247
1357 1358 -5.773498925810394E-1
1357 1385 -5.773502692164609E-1
1357 1386 -5.773502692200958E-1
1358 1328 -5.773501190083175E-1
1358 1334 -5.773513162464176E-1
1358 1357 -5.773498925810394E-1
1358 1358 3.4641016151386053
1358 1362 -5.773497486744753E-1
1358 1386 -5.773502692438666E-1
1358 1387 -5.773502693844892E-1
1359 1329 -5.929312811537659E-1
1359 1330 -2.715490412945062E-1
1359 1352 -6.474501368105968E-1
1359 1359 1.7121193398607633
1359 1381 -2.0018888060189427E-1
1360 1331 -8.26525970397235E-1
1360 1332 -5.038530503478529E-1
1360 1338 -7.919563194985841E-1
1360 1360 3.688086987789888
1360 1366 -6.475746474528773E-1
1360 1367 -9.18177000093338E-1
1361 1332 -4.8697993049640387E-1
1361 1333 -3.382284791709611E-1
1361 1361 1.7061579775305187
1361 1367 -5.989512074823908E-1
1361 1388 -2.8199836038076287E-1
1362 1334 -5.773507856607272E-1
1362 1344 -5.77350273004041E-1
1362 1358 -5.773497486744753E-1
1362 1362 3.4641016151382242
1362 1372 -5.773502693187755E-1
1362 1387 -5.773502690950203E-1
1362 1389 -5.773502693851849E-1
1363 1335 -5.773502691869397E-1
1363 1336 -5.773502691907753E-1
1363 1355 -5.773502691915415E-1
1363 1363 3.4641016151377544
1363 1364 -5.773502691899326E-1
1363 1382 -5.773502691895862E-1
1363 1390 -5.773502691889791E-1
1364 1336 -5.773502691888137E-1
1364 1337 -5.773502691897847E-1
1364 1363 -5.773502691899326E-1
1364 1364 3.4641273227910703
1364 1365 -5.756407063477155E-1
1364 1390 -5.739054358527904E-1
1364 1391 -5.825303730220334E-1
1365 1337 -5.609316556636744E-1
1365 1338 -6.172657586725216E-1
1365 1364 -5.756407063477155E-1
1365 1365 3.4849582491500817
1365 1366 -4.591526797666217E-1
1365 1391 -5.586165712179918E-1
1365 1392 -7.133508774815568E-1
1366 1338 -4.6740893892198104E-1
1366 1360 -6.475746474528773E-1
1366 1365 -4.591526797666217E-1
1366 1366 3.4203346319812464
1366 1367 -2.7370028414178693E-1
1366 1392 -4.479104040662825E-1
1366 1393 -5.641426740315105E-1
1366 1412 -5.604450036001865E-1
1367 1332 -4.9281043837759264E-1
1367 1360 -9.18177000093338E-1
1367 1361 -5.989512074823908E-1
1367 1366 -2.7370028414178693E-1
1367 1367 3.6036257120788138
1367 1388 -4.8463632469005535E-1
1367 1393 -8.353504572936505E-1
1368 1339 -5.773502691596559E-1
1368 1342 -5.773502707611764E-1
1368 1368 3.464101615137755
1368 1369 -5.773502691894579E-1
1368 1372 -5.773502676689026E-1
1368 1394 -5.773502691689054E-1
1368 1395 -5.773502691896562E-1
1369 1339 -5.773502691397516E-1
1369 1340 -5.773502692897001E-1
1369 1368 -5.773502691894579E-1
1369 1369 3.464101615137755
1369 1370 -5.773502691394944E-1
1369 1395 -5.773502691896553E-1
1369 1396 -5.773502691896952E-1
1370 1340 -5.773502691728682E-1
1370 1341 -5.77350269323287E-1
1370 1369 -5.773502691394944E-1
1370 1370 3.464102059721582
1370 1371 -5.775792250819093E-1
1370 1396 -5.768982738139063E-1
1370 1397 -5.775737531901165E-1
1371 1341 -5.773502692367471E-1
1371 1343 -5.773502692288566E-1
1371 1370 -5.775792250819093E-1
1371 1371 3.464102507608649
1371 1373 -5.773502691700811E-1
1371 1397 -5.764416965745829E-1
1371 1398 -5.780307783164716E-1
1372 1342 -5.773502720855672E-1
1372 1344 -5.773502677770381E-1
1372 1362 -5.773502693187755E-1
1372 1368 -5.773502676689026E-1
1372 1372 3.4641016151377544
1372 1389 -5.773502690661461E-1
1372 1394 -5.773502692213247E-1
1373 1343 -5.773502692086877E-1
1373 1345 -5.773502691903651E-1
1373 1371 -5.773502691700811E-1
1373 1373 3.4641016151377544
1373 1374 -5.773502691892554E-1
1373 1398 -5.773502691897379E-1
1373 1399 -5.773502691896275E-1
1374 1345 -5.773502691897077E-1
1374 1346 -5.773502691900183E-1
1374 1373 -5.773502691892554E-1
1374 1374 3.464129985646054
1374 1375 -5.744724265696441E-1
1374 1399 -5.745188797436338E-1
1374 1400 -5.830878717637948E-1
1375 1346 -5.77350269190066E-1
1375 1347 -5.753371170686779E-1
1375 1374 -5.744724265696441E-1
1375 1375 3.464163214302959
1375 1376 -5.730343437207752E-1
1375 1400 -5.76775979446947E-1
1375 1401 -5.871930783068484E-1
1376 1347 -5.830598555938109E-1
1376 1348 -5.742474914245472E-1
1376 1375 -5.730343437207752E-1
1376 1376 3.4711400939122474
1376 1377 -5.176339726293802E-1
1376 1401 -5.486141050312858E-1
1376 1402 -6.745503255124481E-1
1377 1348 -6.021012718229165E-1
1377 1349 -6.177651358285207E-1
1377 1376 -5.176339726293802E-1
1377 1377 3.4752014250595895
1377 1378 -5.012053675690198E-1
1377 1402 -5.77475525684952E-1
1377 1403 -6.590201515248002E-1
1378 1349 -5.216694465394095E-1
1378 1350 -6.789651790252038E-1
1378 1377 -5.012053675690198E-1
1378 1378 3.485639990320893
1378 1379 -5.144031796058526E-1
1378 1403 -6.339550127792575E-1
1378 1404 -6.354418048021493E-1
1379 1350 -4.8422536638696234E-1
1379 1351 -3.8528579247755623E-1
1379 1378 -5.144031796058526E-1
1379 1379 3.414562940459741
1379 1380 -6.664148263885061E-1
1379 1404 -5.734795699841003E-1
1379 1405 -4.069916950295001E-1
1379 1414 -3.8376251058726324E-1
1380 1351 -8.470182213182997E-1
1380 1352 -5.394849437659088E-1
1380 1379 -6.664148263885061E-1
1380 1380 3.678354828059888
1380 1381 -7.870684862741051E-1
1380 1405 -8.383683503130683E-1
1381 1352 -6.238065172076406E-1
1381 1359 -2.0018888060189427E-1
1381 1380 -7.870684862741051E-1
1381 1381 1.746035560814572
1381 1405 -1.3497167673093208E-1
1382 1353 -5.77350269190448E-1
1382 1355 -5.773502691888017E-1
1382 1363 -5.773502691895862E-1
1382 1382 3.4641016151377544
1382 1383 -5.773502691894514E-1
1382 1390 -5.773502691900834E-1
1382 1406 -5.773502691893839E-1
1383 1353 -5.773498196242522E-1
1383 1354 -5.773516179186129E-1
1383 1382 -5.773502691894514E-1
1383 1383 3.464101615139505
1383 1384 -5.773493700277871E-1
1383 1406 -5.773502691898386E-1
1383 1407 -5.773502691895627E-1
1384 1354 -5.773516179478603E-1
1384 1356 -5.773498195949446E-1
1384 1383 -5.773493700277871E-1
1384 1384 3.4641016151395045
1384 1385 -5.77350269189604E-1
1384 1407 -5.773502691896951E-1
1384 1408 -5.773502691896137E-1
1385 1356 -5.773502691706927E-1
1385 1357 -5.773502692164609E-1
1385 1384 -5.77350269189604E-1
1385 1385 3.4641016151377544
1385 1386 -5.773502691848951E-1
1385 1408 -5.773502691896396E-1
1385 1409 -5.77350269186462E-1
1386 1357 -5.773502692200958E-1
1386 1358 -5.773502692438666E-1
1386 1385 -5.773502691848951E-1
1386 1386 3.4641016151377544
1386 1387 -5.773502691003628E-1
1386 1409 -5.773502691943642E-1
1386 1410 -5.773502691941699E-1
1387 1358 -5.773502693844892E-1
1387 1362 -5.773502690950203E-1
1387 1386 -5.773502691003628E-1
1387 1387 3.464101615137754
1387 1389 -5.773502691440542E-1
1387 1410 -5.773502691976525E-1
1387 1411 -5.773502692161754E-1
1388 1361 -2.8199836038076287E-1
1388 1367 -4.8463632469005535E-1
1388 1388 1.729560774664015
1388 1393 -7.460203615785412E-1
1388 1413 -2.1690572801465552E-1
1389 1362 -5.773502693851849E-1
1389 1372 -5.773502690661461E-1
1389 1387 -5.773502691440542E-1
1389 1389 3.464101615137755
1389 1394 -5.773502691786725E-1
1389 1411 -5.773502691740823E-1
1389 1415 -5.773502691896149E-1
1390 1363 -5.773502691889791E-1
1390 1364 -5.739054358527904E-1
1390 1382 -5.773502691900834E-1
1390 1390 3.4641273227910716
1390 1391 -5.825303730221446E-1
1390 1406 -5.773502691896111E-1
1390 1416 -5.75640706347463E-1
1391 1364 -5.825303730220334E-1
1391 1365 -5.586165712179918E-1
1391 1390 -5.825303730221446E-1
1391 1391 3.4652738814933746
1391 1392 -5.777663620168234E-1
1391 1416 -5.565428560117773E-1
1391 1417 -6.072873462026043E-1
1392 1365 -7.133508774815568E-1
1392 1366 -4.479104040662825E-1
1392 1391 -5.777663620168234E-1
1392 1392 3.5056649255080465
1392 1412 -5.408238118459813E-1
1392 1417 -4.7845004162845495E-1
1392 1418 -7.473634284689472E-1
1393 1366 -5.641426740315105E-1
1393 1367 -8.353504572936505E-1
1393 1388 -7.460203615785412E-1
1393 1393 3.687810442542016
1393 1412 -9.145739673089988E-1
1393 1413 -6.277229823293151E-1
1394 1368 -5.773502691689054E-1
1394 1372 -5.773502692213247E-1
1394 1389 -5.773502691786725E-1
1394 1394 3.4641016151377553
1394 1395 -5.773502691895851E-1
1394 1415 -5.773502691896422E-1
1394 1419 -5.773502691896247E-1
1395 1368 -5.773502691896562E-1
1395 1369 -5.773502691896553E-1
1395 1394 -5.773502691895851E-1
1395 1395 3.4641016151377544
1395 1396 -5.773502691896008E-1
1395 1419 -5.773502691896284E-1
1395 1420 -5.773502691896291E-1
1396 1369 -5.773502691896952E-1
1396 1370 -5.768982738139063E-1
1396 1395 -5.773502691896008E-1
1396 1396 3.464102772986283
1396 1397 -5.784842894094562E-1
1396 1420 -5.773502691896286E-1
1396 1421 -5.766694021939958E-1
1397 1370 -5.775737531901165E-1
1397 1371 -5.764416965745829E-1
1397 1396 -5.784842894094562E-1
1397 1397 3.4641174291075982
1397 1398 -5.776048643767554E-1
1397 1421 -5.75554451546303E-1
1397 1422 -5.784583740103844E-1
1398 1371 -5.780307783164716E-1
1398 1373 -5.773502691897379E-1
1398 1397 -5.776048643767554E-1
1398 1398 3.4641299994518833
1398 1399 -5.773502691895154E-1
1398 1422 -5.723658184701534E-1
1398 1423 -5.814279999092499E-1
1399 1373 -5.773502691896275E-1
1399 1374 -5.745188797436338E-1
1399 1398 -5.773502691895154E-1
1399 1399 3.4641155054199952
1399 1400 -5.801354406751937E-1
1399 1423 -5.773502691896044E-1
1399 1424 -5.774103774324202E-1
1400 1374 -5.830878717637948E-1
1400 1375 -5.76775979446947E-1
1400 1399 -5.801354406751937E-1
1400 1400 3.4649612675288672
1400 1401 -5.596394492746355E-1
1400 1424 -5.574444523712424E-1
1400 1425 -6.078780739970542E-1
1401 1375 -5.871930783068484E-1
1401 1376 -5.486141050312858E-1
1401 1400 -5.596394492746355E-1
1401 1401 3.4688420988543145
1401 1402 -5.776013035203028E-1
1401 1425 -6.290938260231047E-1
1401 1426 -5.667003366981378E-1
1402 1376 -6.745503255124481E-1
1402 1377 -5.77475525684952E-1
1402 1401 -5.776013035203028E-1
1402 1402 3.540330863281765
1402 1403 -4.2403280263753906E-1
1402 1426 -4.203329775963799E-1
1402 1427 -8.663379283301433E-1
1403 1377 -6.590201515248002E-1
1403 1378 -6.339550127792575E-1
1403 1402 -4.2403280263753906E-1
1403 1403 3.4946304138072968
1403 1404 -5.591346779538815E-1
1403 1427 -6.521332861691902E-1
1403 1428 -5.663544827426286E-1
1404 1378 -6.354418048021493E-1
1404 1379 -5.734795699841003E-1
1404 1403 -5.591346779538815E-1
1404 1404 3.482859671328444
1404 1414 -6.202872097567176E-1
1404 1428 -5.739245178361836E-1
1404 1429 -5.205918909954117E-1
1405 1379 -4.069916950295001E-1
1405 1380 -8.383683503130683E-1
1405 1381 -1.3497167673093208E-1
1405 1405 1.7876328697850508
1405 1414 -4.073011477115501E-1
1406 1382 -5.773502691893839E-1
1406 1383 -5.773502691898386E-1
1406 1390 -5.773502691896111E-1
1406 1406 3.4641016151377544
1406 1407 -5.773502691896153E-1
1406 1416 -5.773502691897527E-1
1406 1430 -5.773502691895532E-1
1407 1383 -5.773502691895627E-1
1407 1384 -5.773502691896951E-1
1407 1406 -5.773502691896153E-1
1407 1407 3.4641016151377544
1407 1408 -5.773502691896097E-1
1407 1430 -5.773502691896675E-1
1407 1431 -5.77350269189604E-1
1408 1384 -5.773502691896137E-1
1408 1385 -5.773502691896396E-1
1408 1407 -5.773502691896097E-1
1408 1408 3.4641016151377544
1408 1409 -5.773502691896278E-1
1408 1431 -5.773502691896416E-1
1408 1432 -5.77350269189622E-1
1409 1385 -5.77350269186462E-1
1409 1386 -5.773502691943642E-1
1409 1408 -5.773502691896278E-1
1409 1409 3.464101615137755
1409 1410 -5.773502691880524E-1
1409 1432 -5.773502691896258E-1
1409 1433 -5.773502691896223E-1
1410 1386 -5.773502691941699E-1
1410 1387 -5.773502691976525E-1
1410 1409 -5.773502691880524E-1
1410 1410 3.464101615137755
1410 1411 -5.773502691786287E-1
1410 1433 -5.773502691896224E-1
1410 1434 -5.773502691896288E-1
1411 1387 -5.773502692161754E-1
1411 1389 -5.773502691740823E-1
1411 1410 -5.773502691786287E-1
1411 1411 3.464101615137755
1411 1415 -5.773502691896192E-1
1411 1434 -5.773502691896205E-1
1411 1435 -5.773502691896286E-1
1412 1366 -5.604450036001865E-1
1412 1392 -5.408238118459813E-1
1412 1393 -9.145739673089988E-1
1412 1412 3.7097913427068443
1412 1413 -1.450706819504659E-1
1412 1418 -4.908536202490185E-1
1412 1436 -1.0580242577521934
1413 1388 -2.1690572801465552E-1
1413 1393 -6.277229823293151E-1
1413 1412 -1.450706819504659E-1
1413 1413 1.6786318528782742
1413 1436 -4.796193801798903E-1
1413 1441 -2.0931308040394747E-1
1414 1379 -3.8376251058726324E-1
1414 1404 -6.202872097567176E-1
1414 1405 -4.073011477115501E-1
1414 1414 1.732528905591779
1414 1429 -3.2117803753624785E-1
1415 1389 -5.773502691896149E-1
1415 1394 -5.773502691896422E-1
1415 1411 -5.773502691896192E-1
1415 1415 3.4641016151377544
1415 1419 -5.773502691896175E-1
1415 1435 -5.77350269189629E-1
1415 1437 -5.773502691896318E-1
1416 1390 -5.75640706347463E-1
1416 1391 -5.565428560117773E-1
1416 1406 -5.773502691897527E-1
1416 1416 3.4650221096956235
1416 1417 -6.107311990773826E-1
1416 1430 -5.77350269189661E-1
1416 1438 -5.674068098795864E-1
1417 1391 -6.072873462026043E-1
1417 1392 -4.7845004162845495E-1
1417 1416 -6.107311990773826E-1
1417 1417 3.4788494185787853
1417 1418 -5.317071169227037E-1
1417 1438 -5.526713230177773E-1
1417 1439 -6.980023917298626E-1
1418 1392 -7.473634284689472E-1
1418 1412 -4.908536202490185E-1
1418 1417 -5.317071169227037E-1
1418 1418 3.517023915604976
1418 1436 -4.092833671513419E-1
1418 1439 -5.879899428959345E-1
1418 1440 -7.498264399170302E-1
1419 1394 -5.773502691896247E-1
1419 1395 -5.773502691896284E-1
1419 1415 -5.773502691896175E-1
1419 1419 3.464101615137755
1419 1420 -5.773502691896258E-1
1419 1437 -5.773502691896257E-1
1419 1442 -5.773502691896324E-1
1420 1395 -5.773502691896291E-1
1420 1396 -5.773502691896286E-1
1420 1419 -5.773502691896258E-1
1420 1420 3.4641016151377544
1420 1421 -5.77350269189625E-1
1420 1442 -5.773502691896186E-1
1420 1443 -5.773502691896275E-1
1421 1396 -5.766694021939958E-1
1421 1397 -5.75554451546303E-1
1421 1420 -5.77350269189625E-1
1421 1421 3.464178856975123
1421 1422 -5.811610275001982E-1
1421 1443 -5.70148136367149E-1
1421 1444 -5.832955701778515E-1
1422 1397 -5.784583740103844E-1
1422 1398 -5.723658184701534E-1
1422 1421 -5.811610275001982E-1
1422 1422 3.464369915211231
1422 1423 -5.818290015165155E-1
1422 1444 -5.723621674180035E-1
1422 1445 -5.781935262959761E-1
1423 1398 -5.814279999092499E-1
1423 1399 -5.773502691896044E-1
1423 1422 -5.818290015165155E-1
1423 1423 3.4694951127075226
1423 1424 -5.538188535847905E-1
1423 1445 -5.162119874491857E-1
1423 1446 -6.588570010581767E-1
1424 1399 -5.774103774324202E-1
1424 1400 -5.574444523712424E-1
1424 1423 -5.538188535847905E-1
1424 1424 3.470689325926382
1424 1425 -6.349109040651931E-1
1424 1446 -6.173911187296761E-1
1424 1447 -5.297136197430592E-1
1425 1400 -6.078780739970542E-1
1425 1401 -6.290938260231047E-1
1425 1424 -6.349109040651931E-1
1425 1425 3.5601065528711464
1425 1426 -3.653223784388392E-1
1425 1447 -4.043842407548629E-1
1425 1448 -9.185171295920921E-1
1426 1401 -5.667003366981378E-1
1426 1402 -4.203329775963799E-1
1426 1425 -3.653223784388392E-1
1426 1426 3.4080482515427306
1426 1427 -5.675876970551821E-1
1426 1448 -5.86763127691408E-1
1426 1449 -4.2173385357004545E-1
1426 1457 -4.79607880492738E-1
1427 1402 -8.663379283301433E-1
1427 1403 -6.521332861691902E-1
1427 1426 -5.675876970551821E-1
1427 1427 3.672572752732756
1427 1428 -7.183498666654506E-1
1427 1449 -8.681639745127895E-1
1428 1403 -5.663544827426286E-1
1428 1404 -5.739245178361836E-1
1428 1427 -7.183498666654506E-1
1428 1428 3.5026525272952216
1428 1429 -6.078886188240331E-1
1428 1449 -4.2281725849162727E-1
1428 1450 -6.133177827352982E-1
1429 1404 -5.205918909954117E-1
1429 1414 -3.2117803753624785E-1
1429 1428 -6.078886188240331E-1
1429 1429 1.7037540095230572
1429 1450 -2.5409546216736467E-1
1430 1406 -5.773502691895532E-1
1430 1407 -5.773502691896675E-1
1430 1416 -5.77350269189661E-1
1430 1430 3.4641016151377544
1430 1431 -5.773502691896345E-1
1430 1438 -5.773502691896344E-1
1430 1451 -5.773502691896036E-1
1431 1407 -5.77350269189604E-1
1431 1408 -5.773502691896416E-1
1431 1430 -5.773502691896345E-1
1431 1431 3.464144916037906
1431 1432 -5.728798507260875E-1
1431 1451 -5.751367104079368E-1
1431 1452 -5.840775473350015E-1
1432 1408 -5.77350269189622E-1
1432 1409 -5.773502691896258E-1
1432 1431 -5.728798507260875E-1
1432 1432 3.4641449160379065
1432 1433 -5.773502691896342E-1
1432 1452 -5.840775473350104E-1
1432 1453 -5.751367104079262E-1
1433 1409 -5.773502691896223E-1
1433 1410 -5.773502691896224E-1
1433 1432 -5.773502691896342E-1
1433 1433 3.4641016151377544
1433 1434 -5.773502691896282E-1
1433 1453 -5.773502691896195E-1
1433 1454 -5.77350269189628E-1
1434 1410 -5.773502691896288E-1
1434 1411 -5.773502691896205E-1
1434 1433 -5.773502691896282E-1
1434 1434 3.4641016151377553
1434 1435 -5.773502691896308E-1
1434 1454 -5.773502691896166E-1
1434 1455 -5.773502691896298E-1
1435 1411 -5.773502691896286E-1
1435 1415 -5.77350269189629E-1
1435 1434 -5.773502691896308E-1
1435 1435 3.4641016151377544
1435 1437 -5.773502691896248E-1
1435 1455 -5.773502691896186E-1
1435 1456 -5.773502691896224E-1
1436 1412 -1.0580242577521934
1436 1413 -4.796193801798903E-1
1436 1418 -4.092833671513419E-1
1436 1436 3.830749168609783
1436 1440 -8.445739602515066E-1
1436 1441 -1.039248203274851
1437 1415 -5.773502691896318E-1
1437 1419 -5.773502691896257E-1
1437 1435 -5.773502691896248E-1
1437 1437 3.46411044596404
1437 1442 -5.763450596988677E-1
1437 1456 -5.753310193818407E-1
1437 1458 -5.803835593144485E-1
1438 1416 -5.674068098795864E-1
1438 1417 -5.526713230177773E-1
1438 1430 -5.773502691896344E-1
1438 1438 3.4704173613522133
1438 1439 -5.378895570842404E-1
1438 1451 -6.166214977738591E-1
1438 1459 -6.184779044071158E-1
1439 1417 -6.980023917298626E-1
1439 1418 -5.879899428959345E-1
1439 1438 -5.378895570842404E-1
1439 1439 3.514610096609032
1439 1440 -4.0123827974019294E-1
1439 1459 -5.848444966677522E-1
1439 1460 -7.046454284910495E-1
1440 1418 -7.498264399170302E-1
1440 1436 -8.445739602515066E-1
1440 1439 -4.0123827974019294E-1
1440 1440 3.5834504548519477
1440 1441 -3.127942496645787E-1
1440 1460 -6.943269243883099E-1
1440 1461 -5.806906008903294E-1
1441 1413 -2.0931308040394747E-1
1441 1436 -1.039248203274851
1441 1440 -3.127942496645787E-1
1441 1441 1.8399997770214014
1441 1461 -2.786442436780245E-1
1442 1419 -5.773502691896324E-1
1442 1420 -5.773502691896186E-1
1442 1437 -5.763450596988677E-1
1442 1442 3.464415570814708
1442 1443 -5.714260672867619E-1
1442 1458 -5.651879097069461E-1
1442 1462 -5.967559957428811E-1
1443 1420 -5.773502691896275E-1
1443 1421 -5.70148136367149E-1
1443 1442 -5.714260672867619E-1
1443 1443 3.4673708854182115
1443 1444 -5.739323039489275E-1
1443 1462 -5.335125735373295E-1
1443 1463 -6.410015350884162E-1
1444 1421 -5.832955701778515E-1
1444 1422 -5.723621674180035E-1
1444 1443 -5.739323039489275E-1
1444 1444 3.491101848062855
1444 1445 -7.098430532621833E-1
1444 1463 -6.179004995880555E-1
1444 1464 -4.337682536678339E-1
1445 1422 -5.781935262959761E-1
1445 1423 -5.162119874491857E-1
1445 1444 -7.098430532621833E-1
1445 1445 3.4944003597233233
1445 1446 -5.689802471525349E-1
1445 1464 -4.5067162562744756E-1
1445 1465 -6.704999199359957E-1
1446 1423 -6.588570010581767E-1
1446 1424 -6.173911187296761E-1
1446 1445 -5.689802471525349E-1
1446 1446 3.5334592234899587
1446 1447 -3.995616517015431E-1
1446 1465 -4.6084673458078934E-1
1446 1466 -8.27822470267239E-1
1447 1424 -5.297136197430592E-1
1447 1425 -4.043842407548629E-1
1447 1446 -3.995616517015431E-1
1447 1447 3.409369321165045
1447 1448 -5.86567325848899E-1
1447 1466 -6.190734538408302E-1
1447 1467 -4.4891655950358905E-1
1447 1475 -4.211524697722616E-1
1448 1425 -9.185171295920921E-1
1448 1426 -5.86763127691408E-1
1448 1447 -5.86567325848899E-1
1448 1448 3.6794938508176536
1448 1457 -7.956319751109124E-1
1448 1467 -7.920142925743423E-1
1449 1426 -4.2173385357004545E-1
1449 1427 -8.681639745127895E-1
1449 1428 -4.2281725849162727E-1
1449 1449 3.5384047892935113
1449 1450 -5.907465425717944E-1
1449 1457 -6.025705391385725E-1
1449 1468 -6.323726210086824E-1
1450 1428 -6.133177827352982E-1
1450 1429 -2.5409546216736467E-1
1450 1449 -5.907465425717944E-1
1450 1450 1.7026117104722758
1450 1468 -2.4445192299781815E-1
1451 1430 -5.773502691896036E-1
1451 1431 -5.751367104079368E-1
1451 1438 -6.166214977738591E-1
1451 1451 3.476401380166206
1451 1452 -5.41390309744214E-1
1451 1459 -4.860648489649506E-1
1451 1469 -6.798377440856427E-1
1452 1431 -5.840775473350015E-1
1452 1432 -5.840775473350104E-1
1452 1451 -5.41390309744214E-1
1452 1452 3.4663835109031007
1452 1453 -5.502921456475143E-1
1452 1469 -6.149075232541952E-1
1452 1470 -5.916384375871655E-1
1453 1432 -5.751367104079262E-1
1453 1433 -5.773502691896195E-1
1453 1452 -5.502921456475143E-1
1453 1453 3.4656600919510567
1453 1454 -5.773502691896326E-1
1453 1470 -6.209302516911457E-1
1453 1471 -5.646004458252187E-1
1454 1433 -5.77350269189628E-1
1454 1434 -5.773502691896166E-1
1454 1453 -5.773502691896326E-1
1454 1454 3.4645700672356567
1454 1455 -5.626583220342506E-1
1454 1471 -5.70238521660886E-1
1454 1472 -5.99622415971643E-1
1455 1434 -5.773502691896298E-1
1455 1435 -5.773502691896186E-1
1455 1454 -5.626583220342506E-1
1455 1455 3.465546751696774
1455 1456 -5.490895709519603E-1
1455 1472 -5.96612250280314E-1
1455 1473 -6.024860700510009E-1
1456 1435 -5.773502691896224E-1
1456 1437 -5.753310193818407E-1
1456 1455 -5.490895709519603E-1
1456 1456 3.4666062412875362
1456 1458 -5.803835593144507E-1
1456 1473 -6.32144425049668E-1
1456 1474 -5.523073973999942E-1
1457 1426 -4.79607880492738E-1
1457 1448 -7.956319751109124E-1
1457 1449 -6.025705391385725E-1
1457 1457 3.50842674262418
1457 1467 -4.588520193063058E-1
1457 1468 -5.671348607964191E-1
1457 1476 -6.046294677792323E-1
1458 1437 -5.803835593144485E-1
1458 1442 -5.651879097069461E-1
1458 1456 -5.803835593144507E-1
1458 1458 3.466341913530899
1458 1462 -6.163948512139727E-1
1458 1474 -5.910147091840191E-1
1458 1477 -5.329773247970613E-1
1459 1438 -6.184779044071158E-1
1459 1439 -5.848444966677522E-1
1459 1451 -4.860648489649506E-1
1459 1459 3.5202356757708193
1459 1460 -2.0108289438886875E-1
1459 1469 -3.279215953085164E-1
1459 1478 -4.78098751157274E-1
1459 1485 -8.237451848763415E-1
1460 1439 -7.046454284910495E-1
1460 1440 -6.943269243883099E-1
1460 1459 -2.0108289438886875E-1
1460 1460 3.575420520291968
1460 1461 -5.932632377691489E-1
1460 1478 -7.565469468441715E-1
1460 1479 -6.255550884104188E-1
1461 1440 -5.806906008903294E-1
1461 1441 -2.786442436780245E-1
1461 1460 -5.932632377691489E-1
1461 1461 1.7018830581766293
1461 1479 -2.4928497583912657E-1
1462 1442 -5.967559957428811E-1
1462 1443 -5.335125735373295E-1
1462 1458 -6.163948512139727E-1
1462 1462 3.4774126711734663
1462 1463 -5.962345089986892E-1
1462 1477 -4.7120875622864655E-1
1462 1480 -6.633059854519467E-1
1463 1443 -6.410015350884162E-1
1463 1444 -6.179004995880555E-1
1463 1462 -5.962345089986892E-1
1463 1463 3.518374049785362
1463 1464 -4.867505132919926E-1
1463 1480 -4.0336541729789327E-1
1463 1481 -7.731215755203156E-1
1464 1444 -4.337682536678339E-1
1464 1445 -4.5067162562744756E-1
1464 1463 -4.867505132919926E-1
1464 1464 3.4123259238319448
1464 1465 -5.39364132765377E-1
1464 1481 -6.623662384267788E-1
1464 1482 -5.186974202493959E-1
1464 1492 -3.2070773980311884E-1
1465 1445 -6.704999199359957E-1
1465 1446 -4.6084673458078934E-1
1465 1464 -5.39364132765377E-1
1465 1465 3.508077656392685
1465 1466 -6.866836327552867E-1
1465 1482 -6.025527846041643E-1
1465 1483 -5.481304517510721E-1
1466 1446 -8.27822470267239E-1
1466 1447 -6.190734538408302E-1
1466 1465 -6.866836327552867E-1
1466 1466 3.655045239512289
1466 1475 -8.316049077585156E-1
1466 1483 -6.898607748904177E-1
1467 1447 -4.4891655950358905E-1
1467 1448 -7.920142925743423E-1
1467 1457 -4.588520193063058E-1
1467 1467 3.511865566742807
1467 1475 -6.315825935479977E-1
1467 1476 -5.838114367902314E-1
1467 1484 -5.966886650203409E-1
1468 1449 -6.323726210086824E-1
1468 1450 -2.4445192299781815E-1
1468 1457 -5.671348607964191E-1
1468 1468 1.7028361739941094
1468 1476 -2.588767691911899E-1
1469 1451 -6.798377440856427E-1
1469 1452 -6.149075232541952E-1
1469 1459 -3.279215953085164E-1
1469 1469 3.5502938516341604
1469 1470 -4.8254219961977673E-1
1469 1485 -8.49759490149367E-1
1469 1486 -5.953252992166624E-1
1470 1452 -5.916384375871655E-1
1470 1453 -6.209302516911457E-1
1470 1469 -4.8254219961977673E-1
1470 1470 3.5113685365394414
1470 1471 -4.034972211977266E-1
1470 1486 -6.295350442277663E-1
1470 1487 -7.832253822158607E-1
1471 1453 -5.646004458252187E-1
1471 1454 -5.70238521660886E-1
1471 1470 -4.034972211977266E-1
1471 1471 3.54565205123567
1471 1472 -4.173563235397098E-1
1471 1487 -8.116579097658752E-1
1471 1488 -7.783016292462541E-1
1472 1454 -5.99622415971643E-1
1472 1455 -5.96612250280314E-1
1472 1471 -4.173563235397098E-1
1472 1472 3.5245257471029388
1472 1473 -4.189333936903058E-1
1472 1488 -7.214243288557447E-1
1472 1489 -7.705770347652217E-1
1473 1455 -6.024860700510009E-1
1473 1456 -6.32144425049668E-1
1473 1472 -4.189333936903058E-1
1473 1473 3.5353766156853714
1473 1474 -7.021901690243564E-1
1473 1489 -7.811511887729936E-1
1473 1490 -3.9847136909704706E-1
1474 1456 -5.523073973999942E-1
1474 1458 -5.910147091840191E-1
1474 1473 -7.021901690243564E-1
1474 1474 3.5046545050004627
1474 1477 -7.040248613113765E-1
1474 1490 -5.340449197756154E-1
1474 1491 -4.2107244830510115E-1
1475 1447 -4.211524697722616E-1
1475 1466 -8.316049077585156E-1
1475 1467 -6.315825935479977E-1
1475 1475 3.5251204613999336
1475 1483 -4.488241001361876E-1
1475 1484 -6.022684871908075E-1
1475 1493 -5.896879029941635E-1
1476 1457 -6.046294677792323E-1
1476 1467 -5.838114367902314E-1
1476 1468 -2.588767691911899E-1
1476 1476 1.701371543696965
1476 1484 -2.540538699363115E-1
1477 1458 -5.329773247970613E-1
1477 1462 -4.7120875622864655E-1
1477 1474 -7.040248613113765E-1
1477 1477 3.4993543991661706
1477 1480 -7.129711022529324E-1
1477 1491 -5.197483077588396E-1
1477 1494 -5.584240468173144E-1
1478 1459 -4.78098751157274E-1
1478 1460 -7.565469468441715E-1
1478 1478 3.5865738390005166
1478 1479 -5.438546299929515E-1
1478 1485 -8.426953229341747E-1
1478 1495 -4.21884693498036E-1
1478 1496 -5.434934945739094E-1
1479 1460 -6.255550884104188E-1
1479 1461 -2.4928497583912657E-1
1479 1478 -5.438546299929515E-1
1479 1479 1.7019831999813895
1479 1496 -2.832885057388925E-1
1480 1462 -6.633059854519467E-1
1480 1463 -4.0336541729789327E-1
1480 1477 -7.129711022529324E-1
1480 1480 3.513333694867018
1480 1481 -7.363976196127114E-1
1480 1494 -5.261600256190431E-1
1480 1497 -4.711335446324907E-1
1481 1463 -7.731215755203156E-1
1481 1464 -6.623662384267788E-1
1481 1480 -7.363976196127114E-1
1481 1481 3.652067926319537
1481 1492 -8.11596384315505E-1
1481 1497 -6.685861084442262E-1
1482 1464 -5.186974202493959E-1
1482 1465 -6.025527846041643E-1
1482 1482 3.4837199960758665
1482 1483 -5.860896621331986E-1
1482 1492 -6.966051368646914E-1
1482 1498 -5.300447385669333E-1
1482 1499 -5.497302536574826E-1
1483 1465 -5.481304517510721E-1
1483 1466 -6.898607748904177E-1
1483 1475 -4.488241001361876E-1
1483 1482 -5.860896621331986E-1
1483 1483 3.4932867213255476
1483 1493 -6.135334693870207E-1
1483 1499 -6.068482630276504E-1
1484 1467 -5.966886650203409E-1
1484 1475 -6.022684871908075E-1
1484 1476 -2.540538699363115E-1
1484 1484 1.702148643597345
1484 1493 -2.4913762144988522E-1
1485 1459 -8.237451848763415E-1
1485 1469 -8.49759490149367E-1
1485 1478 -8.426953229341747E-1
1485 1485 3.696634149293075
1485 1486 -4.3064133006549E-1
1485 1495 -7.497928212677016E-1
1486 1469 -5.953252992166624E-1
1486 1470 -6.295350442277663E-1
1486 1485 -4.3064133006549E-1
1486 1486 3.5269891975491454
1486 1487 -3.788329474114324E-1
1486 1495 -6.874626145584928E-1
1486 1500 -8.051919620693013E-1
1487 1470 -7.832253822158607E-1
1487 1471 -8.116579097658752E-1
1487 1486 -3.788329474114324E-1
1487 1487 3.570568410708618
1487 1488 -3.6624506890854147E-1
1487 1500 -4.681412271510395E-1
1487 1501 -7.624658752558686E-1
1488 1471 -7.783016292462541E-1
1488 1472 -7.214243288557447E-1
1488 1487 -3.6624506890854147E-1
1488 1488 3.5547896400909798
1488 1489 -4.32830284935802E-1
1488 1501 -4.563041040287542E-1
1488 1502 -7.996842241158836E-1
1489 1472 -7.705770347652217E-1
1489 1473 -7.811511887729936E-1
1489 1488 -4.32830284935802E-1
1489 1489 3.6125566189130134
1489 1490 -3.636405965373468E-1
1489 1502 -3.785268389541891E-1
1489 1503 -8.858306749474606E-1
1490 1473 -3.9847136909704706E-1
1490 1474 -5.340449197756154E-1
1490 1489 -3.636405965373468E-1
1490 1490 3.4724989024098196
1490 1491 -6.513248890070357E-1
1490 1503 -7.983332614198813E-1
1490 1504 -3.245191140969931E-1
1490 1508 -4.0216475247590006E-1
1491 1474 -4.2107244830510115E-1
1491 1477 -5.197483077588396E-1
1491 1490 -6.513248890070357E-1
1491 1491 3.4985606897542416
1491 1494 -6.553912374418436E-1
1491 1504 -6.814470693235226E-1
1491 1505 -5.69576737917899E-1
1492 1464 -3.2070773980311884E-1
1492 1481 -8.11596384315505E-1
1492 1482 -6.966051368646914E-1
1492 1492 3.544201672614859
1492 1497 -5.167211588861028E-1
1492 1498 -6.209463136122777E-1
1492 1506 -5.776249391331633E-1
1493 1475 -5.896879029941635E-1
1493 1483 -6.135334693870207E-1
1493 1484 -2.4913762144988522E-1
1493 1493 1.7025688547992632
1493 1499 -2.502098609681935E-1
1494 1477 -5.584240468173144E-1
1494 1480 -5.261600256190431E-1
1494 1491 -6.553912374418436E-1
1494 1494 3.47618135830606
1494 1497 -6.50094514260146E-1
1494 1505 -5.164394431482142E-1
1494 1507 -5.696720910194983E-1
1495 1478 -4.21884693498036E-1
1495 1485 -7.497928212677016E-1
1495 1486 -6.874626145584928E-1
1495 1495 3.550211541831482
1495 1496 -6.675213104753789E-1
1495 1500 -3.0827970566038304E-1
1495 1509 -7.152703963714895E-1
1496 1478 -5.434934945739094E-1
1496 1479 -2.832885057388925E-1
1496 1495 -6.675213104753789E-1
1496 1496 1.708788598284203
1496 1509 -2.144852874960223E-1
1497 1480 -4.711335446324907E-1
1497 1481 -6.685861084442262E-1
1497 1492 -5.167211588861028E-1
1497 1494 -6.50094514260146E-1
1497 1497 3.486361543254218
1497 1506 -6.102554901510381E-1
1497 1507 -5.695707268802146E-1
1498 1482 -5.300447385669333E-1
1498 1492 -6.209463136122777E-1
1498 1498 1.7019204207285235
1498 1499 -2.9459432521173606E-1
1498 1506 -2.5633504333757656E-1
1499 1482 -5.497302536574826E-1
1499 1483 -6.068482630276504E-1
1499 1493 -2.502098609681935E-1
1499 1498 -2.9459432521173606E-1
1499 1499 1.7013827028650625
1500 1486 -8.051919620693013E-1
1500 1487 -4.681412271510395E-1
1500 1495 -3.0827970566038304E-1
1500 1500 3.5454786962228644
1500 1501 -6.055594931313815E-1
1500 1509 -5.687661847137913E-1
1500 1510 -7.895401234969678E-1
1501 1487 -7.624658752558686E-1
1501 1488 -4.563041040287542E-1
1501 1500 -6.055594931313815E-1
1501 1501 3.501199166375368
1501 1502 -5.21545362659087E-1
1501 1510 -4.6159554964398536E-1
1501 1511 -6.937287816562913E-1
1502 1488 -7.996842241158836E-1
1502 1489 -3.785268389541891E-1
1502 1501 -5.21545362659087E-1
1502 1502 3.521745262654494
1502 1503 -6.95042163876957E-1
1502 1511 -4.965173610377071E-1
1502 1512 -6.304293120106698E-1
1503 1489 -8.858306749474606E-1
1503 1490 -7.983332614198813E-1
1503 1502 -6.95042163876957E-1
1503 1503 3.665837886886811
1503 1508 -6.886509241496912E-1
1503 1512 -5.979808624928208E-1
1504 1490 -3.245191140969931E-1
1504 1491 -6.814470693235226E-1
1504 1504 1.7582724169400386
1504 1505 -3.110370347891234E-1
1504 1508 -4.412691987303993E-1
1505 1491 -5.69576737917899E-1
1505 1494 -5.164394431482142E-1
1505 1504 -3.110370347891234E-1
1505 1505 1.7011321298591526
1505 1507 -3.040789140039162E-1
1506 1492 -5.776249391331633E-1
1506 1497 -6.102554901510381E-1
1506 1498 -2.5633504333757656E-1
1506 1506 1.7019864012165904
1506 1507 -2.577709285948125E-1
1507 1494 -5.696720910194983E-1
1507 1497 -5.695707268802146E-1
1507 1505 -3.040789140039162E-1
1507 1506 -2.577709285948125E-1
1507 1507 1.7010926604984413
1508 1490 -4.0216475247590006E-1
1508 1503 -6.886509241496912E-1
1508 1504 -4.412691987303993E-1
1508 1508 1.7568732249669763
1508 1512 -2.247883496109857E-1
1509 1495 -7.152703963714895E-1
1509 1496 -2.144852874960223E-1
1509 1500 -5.687661847137913E-1
1509 1509 1.7182024100406275
1509 1510 -2.1968054145932425E-1
1510 1500 -7.895401234969678E-1
1510 1501 -4.6159554964398536E-1
1510 1509 -2.1968054145932425E-1
1510 1510 1.7306671514749876
1510 1511 -2.598509368747102E-1
1511 1501 -6.937287816562913E-1
1511 1502 -4.965173610377071E-1
1511 1510 -2.598509368747102E-1
1511 1511 1.708961563598847
1511 1512 -2.5886448403013873E-1
1512 1502 -6.304293120106698E-1
1512 1503 -5.979808624928208E-1
1512 1508 -2.247883496109857E-1
1512 1511 -2.5886448403013873E-1
1512 1512 1.7120630081446149
